 Entering Link 1 = C:\G09W\l1.exe PID=      7996.
  
 Copyright (c) 1988,1990,1992,1993,1995,1998,2003,2009,2013,
            Gaussian, Inc.  All Rights Reserved.
  
 This is part of the Gaussian(R) 09 program.  It is based on
 the Gaussian(R) 03 system (copyright 2003, Gaussian, Inc.),
 the Gaussian(R) 98 system (copyright 1998, Gaussian, Inc.),
 the Gaussian(R) 94 system (copyright 1995, Gaussian, Inc.),
 the Gaussian 92(TM) system (copyright 1992, Gaussian, Inc.),
 the Gaussian 90(TM) system (copyright 1990, Gaussian, Inc.),
 the Gaussian 88(TM) system (copyright 1988, Gaussian, Inc.),
 the Gaussian 86(TM) system (copyright 1986, Carnegie Mellon
 University), and the Gaussian 82(TM) system (copyright 1983,
 Carnegie Mellon University). Gaussian is a federally registered
 trademark of Gaussian, Inc.
  
 This software contains proprietary and confidential information,
 including trade secrets, belonging to Gaussian, Inc.
  
 This software is provided under written license and may be
 used, copied, transmitted, or stored only in accord with that
 written license.
  
 The following legend is applicable only to US Government
 contracts under FAR:
  
                    RESTRICTED RIGHTS LEGEND
  
 Use, reproduction and disclosure by the US Government is
 subject to restrictions as set forth in subparagraphs (a)
 and (c) of the Commercial Computer Software - Restricted
 Rights clause in FAR 52.227-19.
  
 Gaussian, Inc.
 340 Quinnipiac St., Bldg. 40, Wallingford CT 06492
  
  
 ---------------------------------------------------------------
 Warning -- This program may not be used in any manner that
 competes with the business of Gaussian, Inc. or will provide
 assistance to any competitor of Gaussian, Inc.  The licensee
 of this program is prohibited from giving any competitor of
 Gaussian, Inc. access to this program.  By using this program,
 the user acknowledges that Gaussian, Inc. is engaged in the
 business of creating and licensing software in the field of
 computational chemistry and represents and warrants to the
 licensee that it is not a competitor of Gaussian, Inc. and that
 it will not use this program in any manner prohibited above.
 ---------------------------------------------------------------
  

 Cite this work as:
 Gaussian 09, Revision D.01,
 M. J. Frisch, G. W. Trucks, H. B. Schlegel, G. E. Scuseria, 
 M. A. Robb, J. R. Cheeseman, G. Scalmani, V. Barone, B. Mennucci, 
 G. A. Petersson, H. Nakatsuji, M. Caricato, X. Li, H. P. Hratchian, 
 A. F. Izmaylov, J. Bloino, G. Zheng, J. L. Sonnenberg, M. Hada, 
 M. Ehara, K. Toyota, R. Fukuda, J. Hasegawa, M. Ishida, T. Nakajima, 
 Y. Honda, O. Kitao, H. Nakai, T. Vreven, J. A. Montgomery, Jr., 
 J. E. Peralta, F. Ogliaro, M. Bearpark, J. J. Heyd, E. Brothers, 
 K. N. Kudin, V. N. Staroverov, T. Keith, R. Kobayashi, J. Normand, 
 K. Raghavachari, A. Rendell, J. C. Burant, S. S. Iyengar, J. Tomasi, 
 M. Cossi, N. Rega, J. M. Millam, M. Klene, J. E. Knox, J. B. Cross, 
 V. Bakken, C. Adamo, J. Jaramillo, R. Gomperts, R. E. Stratmann, 
 O. Yazyev, A. J. Austin, R. Cammi, C. Pomelli, J. W. Ochterski, 
 R. L. Martin, K. Morokuma, V. G. Zakrzewski, G. A. Voth, 
 P. Salvador, J. J. Dannenberg, S. Dapprich, A. D. Daniels, 
 O. Farkas, J. B. Foresman, J. V. Ortiz, J. Cioslowski, 
 and D. J. Fox, Gaussian, Inc., Wallingford CT, 2013.
 
 ******************************************
 Gaussian 09:  IA32W-G09RevD.01 24-Apr-2013
                30-Jun-2024 
 ******************************************
 %chk=C:\Users\hp\Desktop\Chem402210676\Part1\Complex.Conf.M0001.chk
 --------------------------------------------
 # opt freq b3lyp/6-31+g(d) geom=connectivity
 --------------------------------------------
 1/14=-1,18=20,19=15,26=3,38=1,57=2/1,3;
 2/9=110,12=2,17=6,18=5,40=1/2;
 3/5=1,6=6,7=11,11=2,16=1,25=1,30=1,71=1,74=-5/1,2,3;
 4//1;
 5/5=2,38=5/2;
 6/7=2,8=2,9=2,10=2,28=1/1;
 7//1,2,3,16;
 1/14=-1,18=20,19=15,26=3/3(2);
 2/9=110/2;
 99//99;
 2/9=110/2;
 3/5=1,6=6,7=11,11=2,16=1,25=1,30=1,71=1,74=-5/1,2,3;
 4/5=5,16=3,69=1/1;
 5/5=2,38=5/2;
 7//1,2,3,16;
 1/14=-1,18=20,19=15,26=3/3(-5);
 2/9=110/2;
 6/7=2,8=2,9=2,10=2,19=2,28=1/1;
 99/9=1/99;
 -----
 M0001
 -----
 Symbolic Z-matrix:
 Charge =  1 Multiplicity = 1
 H                     0.93869  -0.81009  -0.04738 
 N                     0.40516  -0.00001   0.32749 
 H                     0.93871   0.81007  -0.04737 
 O                    -0.81163   0.00001  -0.46956 
 H                    -0.53555   0.00002  -1.41988 
 Li                   -0.93537  0.         1.65669 
 
 Add virtual bond connecting atoms Li6        and N2         Dist= 3.57D+00.

 GradGradGradGradGradGradGradGradGradGradGradGradGradGradGradGradGradGrad
 Berny optimization.
 Initialization pass.
                           ----------------------------
                           !    Initial Parameters    !
                           ! (Angstroms and Degrees)  !
 --------------------------                            --------------------------
 ! Name  Definition              Value          Derivative Info.                !
 --------------------------------------------------------------------------------
 ! R1    R(1,2)                  1.0399         estimate D2E/DX2                !
 ! R2    R(2,3)                  1.0399         estimate D2E/DX2                !
 ! R3    R(2,4)                  1.4546         estimate D2E/DX2                !
 ! R4    R(2,6)                  1.8878         estimate D2E/DX2                !
 ! R5    R(4,5)                  0.9896         estimate D2E/DX2                !
 ! A1    A(1,2,3)              102.3359         estimate D2E/DX2                !
 ! A2    A(1,2,4)              103.3951         estimate D2E/DX2                !
 ! A3    A(1,2,6)              128.1803         estimate D2E/DX2                !
 ! A4    A(3,2,4)              103.3951         estimate D2E/DX2                !
 ! A5    A(3,2,6)              128.1803         estimate D2E/DX2                !
 ! A6    A(4,2,6)               77.9834         estimate D2E/DX2                !
 ! A7    A(2,4,5)              107.0275         estimate D2E/DX2                !
 ! D1    D(1,2,4,5)            -53.2039         estimate D2E/DX2                !
 ! D2    D(3,2,4,5)             53.2039         estimate D2E/DX2                !
 ! D3    D(6,2,4,5)            180.0            estimate D2E/DX2                !
 --------------------------------------------------------------------------------
 Trust Radius=3.00D-01 FncErr=1.00D-07 GrdErr=1.00D-06
 Number of steps in this run=     25 maximum allowed number of steps=    100.
 GradGradGradGradGradGradGradGradGradGradGradGradGradGradGradGradGradGrad

                          Input orientation:                          
 ---------------------------------------------------------------------
 Center     Atomic      Atomic             Coordinates (Angstroms)
 Number     Number       Type             X           Y           Z
 ---------------------------------------------------------------------
      1          1           0        0.938689   -0.810086   -0.047378
      2          7           0        0.405155   -0.000007    0.327488
      3          1           0        0.938707    0.810066   -0.047367
      4          8           0       -0.811627    0.000012   -0.469557
      5          1           0       -0.535551    0.000015   -1.419876
      6          3           0       -0.935373   -0.000001    1.656689
 ---------------------------------------------------------------------
                    Distance matrix (angstroms):
                    1          2          3          4          5
     1  H    0.000000
     2  N    1.039909   0.000000
     3  H    1.620153   1.039909   0.000000
     4  O    1.974361   1.454593   1.974361   0.000000
     5  H    2.171037   1.984492   2.171037   0.989608   0.000000
     6  Li   2.659359   1.887801   2.659359   2.129844   3.102436
                    6
     6  Li   0.000000
 Stoichiometry    H3LiNO(1+)
 Framework group  CS[SG(HLiNO),X(H2)]
 Deg. of freedom     8
 Full point group                 CS      NOp   2
 Largest Abelian subgroup         CS      NOp   2
 Largest concise Abelian subgroup CS      NOp   2
                         Standard orientation:                         
 ---------------------------------------------------------------------
 Center     Atomic      Atomic             Coordinates (Angstroms)
 Number     Number       Type             X           Y           Z
 ---------------------------------------------------------------------
      1          1           0        0.532916    1.065214    0.810076
      2          7           0        0.000000    0.689464    0.000000
      3          1           0        0.532916    1.065214   -0.810076
      4          8           0        0.339691   -0.724909    0.000000
      5          1           0        1.327430   -0.785711    0.000000
      6          3           0       -1.703596   -0.123897    0.000000
 ---------------------------------------------------------------------
 Rotational constants (GHZ):     27.3960781     19.1729612     11.9869863
 Standard basis: 6-31+G(d) (6D, 7F)
 There are    46 symmetry adapted cartesian basis functions of A'  symmetry.
 There are    17 symmetry adapted cartesian basis functions of A"  symmetry.
 There are    46 symmetry adapted basis functions of A'  symmetry.
 There are    17 symmetry adapted basis functions of A"  symmetry.
    63 basis functions,   108 primitive gaussians,    63 cartesian basis functions
    10 alpha electrons       10 beta electrons
       nuclear repulsion energy        52.2990076697 Hartrees.
 NAtoms=    6 NActive=    6 NUniq=    5 SFac= 1.44D+00 NAtFMM=   60 NAOKFM=F Big=F
 Integral buffers will be    262144 words long.
 Raffenetti 2 integral format.
 Two-electron integral symmetry is turned on.
 One-electron integrals computed using PRISM.
 NBasis=    63 RedAO= T EigKep=  1.46D-03  NBF=    46    17
 NBsUse=    63 1.00D-06 EigRej= -1.00D+00 NBFU=    46    17
 ExpMin= 7.40D-03 ExpMax= 5.48D+03 ExpMxC= 8.25D+02 IAcc=3 IRadAn=         5 AccDes= 0.00D+00
 Harris functional with IExCor=  402 and IRadAn=       5 diagonalized for initial guess.
 HarFok:  IExCor=  402 AccDes= 0.00D+00 IRadAn=         5 IDoV= 1 UseB2=F ITyADJ=14
 ICtDFT=  3500011 ScaDFX=  1.000000  1.000000  1.000000  1.000000
 FoFCou: FMM=F IPFlag=           0 FMFlag=      100000 FMFlg1=           0
         NFxFlg=           0 DoJE=T BraDBF=F KetDBF=T FulRan=T
         wScrn=  0.000000 ICntrl=     500 IOpCl=  0 I1Cent=   200000004 NGrid=           0
         NMat0=    1 NMatS0=      1 NMatT0=    0 NMatD0=    1 NMtDS0=    0 NMtDT0=    0
 Petite list used in FoFCou.
 Initial guess orbital symmetries:
       Occupied  (A') (A') (A') (A') (A') (A') (A") (A') (A') (A")
       Virtual   (A') (A') (A') (A") (A') (A') (A") (A') (A') (A")
                 (A') (A') (A') (A") (A') (A') (A") (A') (A") (A')
                 (A') (A') (A') (A') (A") (A") (A') (A') (A') (A')
                 (A") (A') (A") (A') (A') (A") (A') (A') (A') (A")
                 (A') (A') (A") (A') (A') (A') (A') (A") (A") (A')
                 (A') (A') (A')
 The electronic state of the initial guess is 1-A'.
 Keep R1 ints in memory in symmetry-blocked form, NReq=3135044.
 Requested convergence on RMS density matrix=1.00D-08 within 128 cycles.
 Requested convergence on MAX density matrix=1.00D-06.
 Requested convergence on             energy=1.00D-06.
 No special actions if energy rises.
 SCF Done:  E(RB3LYP) =  -139.060920021     A.U. after    9 cycles
            NFock=  9  Conv=0.55D-08     -V/T= 2.0094

 **********************************************************************

            Population analysis using the SCF density.

 **********************************************************************

 Orbital symmetries:
       Occupied  (A') (A') (A') (A') (A') (A') (A") (A') (A') (A")
       Virtual   (A') (A') (A') (A") (A') (A") (A') (A') (A') (A')
                 (A") (A') (A') (A") (A') (A") (A') (A') (A") (A')
                 (A') (A') (A') (A') (A") (A") (A') (A') (A') (A')
                 (A") (A') (A") (A') (A') (A") (A') (A') (A') (A")
                 (A') (A') (A") (A') (A') (A') (A') (A") (A") (A')
                 (A') (A') (A')
 The electronic state is 1-A'.
 Alpha  occ. eigenvalues --  -19.41371 -14.62235  -2.24089  -1.28985  -1.03496
 Alpha  occ. eigenvalues --   -0.77411  -0.73080  -0.63325  -0.54781  -0.52352
 Alpha virt. eigenvalues --   -0.20435  -0.18247  -0.16578  -0.14083  -0.10995
 Alpha virt. eigenvalues --   -0.10077  -0.07709  -0.07041  -0.06648  -0.06147
 Alpha virt. eigenvalues --   -0.05503  -0.04721  -0.01580   0.00057   0.01038
 Alpha virt. eigenvalues --    0.02375   0.02672   0.05550   0.05863   0.06688
 Alpha virt. eigenvalues --    0.08948   0.14675   0.18135   0.30905   0.31539
 Alpha virt. eigenvalues --    0.37591   0.43031   0.48852   0.61922   0.71078
 Alpha virt. eigenvalues --    0.72935   0.74539   0.80153   0.85406   0.91443
 Alpha virt. eigenvalues --    0.95111   1.01119   1.11776   1.15365   1.27102
 Alpha virt. eigenvalues --    1.30467   1.42622   1.55655   1.58685   1.78233
 Alpha virt. eigenvalues --    1.91672   2.04276   2.06693   2.20361   2.25117
 Alpha virt. eigenvalues --    2.66553   3.68770   3.87610
          Condensed to atoms (all electrons):
               1          2          3          4          5          6
     1  H    0.332809   0.314534  -0.032531  -0.042913  -0.004429  -0.014216
     2  N    0.314534   7.009293   0.314534   0.008199  -0.029684   0.107393
     3  H   -0.032531   0.314534   0.332809  -0.042913  -0.004429  -0.014216
     4  O   -0.042913   0.008199  -0.042913   8.203354   0.221869   0.041520
     5  H   -0.004429  -0.029684  -0.004429   0.221869   0.295272   0.005191
     6  Li  -0.014216   0.107393  -0.014216   0.041520   0.005191   2.170648
 Mulliken charges:
               1
     1  H    0.446747
     2  N   -0.724268
     3  H    0.446747
     4  O   -0.389115
     5  H    0.516210
     6  Li   0.703680
 Sum of Mulliken charges =   1.00000
 Mulliken charges with hydrogens summed into heavy atoms:
               1
     2  N    0.169225
     4  O    0.127095
     6  Li   0.703680
 Electronic spatial extent (au):  <R**2>=             99.6826
 Charge=              1.0000 electrons
 Dipole moment (field-independent basis, Debye):
    X=             -3.1441    Y=              1.0718    Z=              0.0000  Tot=              3.3217
 Quadrupole moment (field-independent basis, Debye-Ang):
   XX=              3.8657   YY=            -11.9453   ZZ=            -11.9853
   XY=              1.7517   XZ=              0.0000   YZ=              0.0000
 Traceless Quadrupole moment (field-independent basis, Debye-Ang):
   XX=             10.5540   YY=             -5.2570   ZZ=             -5.2970
   XY=              1.7517   XZ=              0.0000   YZ=              0.0000
 Octapole moment (field-independent basis, Debye-Ang**2):
  XXX=            -22.4675  YYY=              1.3002  ZZZ=              0.0000  XYY=              2.3959
  XXY=             -5.0889  XXZ=              0.0000  XZZ=             -0.5298  YZZ=              2.1557
  YYZ=              0.0000  XYZ=              0.0000
 Hexadecapole moment (field-independent basis, Debye-Ang**3):
 XXXX=             17.2460 YYYY=            -51.0844 ZZZZ=            -14.3606 XXXY=              3.6495
 XXXZ=              0.0000 YYYX=              4.6336 YYYZ=              0.0000 ZZZX=              0.0000
 ZZZY=              0.0000 XXYY=            -11.4856 XXZZ=             -7.0750 YYZZ=            -10.1252
 XXYZ=              0.0000 YYXZ=              0.0000 ZZXY=              2.9222
 N-N= 5.229900766967D+01 E-N=-4.262558053143D+02  KE= 1.377674649109D+02
 Symmetry A'   KE= 1.302352957990D+02
 Symmetry A"   KE= 7.532169111919D+00
 Calling FoFJK, ICntrl=      2127 FMM=F ISym2X=1 I1Cent= 0 IOpClX= 0 NMat=1 NMatS=1 NMatT=0.
 ***** Axes restored to original set *****
 -------------------------------------------------------------------
 Center     Atomic                   Forces (Hartrees/Bohr)
 Number     Number              X              Y              Z
 -------------------------------------------------------------------
      1        1          -0.002880428    0.003429307    0.015654178
      2        7           0.024811973   -0.000000013   -0.038303466
      3        1          -0.002880503   -0.003429456    0.015654132
      4        8           0.000697214    0.000000035   -0.006368701
      5        1          -0.011334713    0.000000062    0.009216116
      6        3          -0.008413543    0.000000064    0.004147740
 -------------------------------------------------------------------
 Cartesian Forces:  Max     0.038303466 RMS     0.012813753

 GradGradGradGradGradGradGradGradGradGradGradGradGradGradGradGradGradGrad
 Berny optimization.
 FormGI is forming the generalized inverse of G from B-inverse, IUseBI=4.
 Internal  Forces:  Max     0.018981177 RMS     0.010985467
 Search for a local minimum.
 Step number   1 out of a maximum of   25
 All quantities printed in internal units (Hartrees-Bohrs-Radians)
 Mixed Optimization -- RFO/linear search
 Second derivative matrix not updated -- first step.
 The second derivative matrix:
                          R1        R2        R3        R4        R5
           R1           0.41308
           R2           0.00000   0.41308
           R3           0.00000   0.00000   0.37650
           R4           0.00000   0.00000   0.00000   0.11335
           R5           0.00000   0.00000   0.00000   0.00000   0.49563
           A1           0.00000   0.00000   0.00000   0.00000   0.00000
           A2           0.00000   0.00000   0.00000   0.00000   0.00000
           A3           0.00000   0.00000   0.00000   0.00000   0.00000
           A4           0.00000   0.00000   0.00000   0.00000   0.00000
           A5           0.00000   0.00000   0.00000   0.00000   0.00000
           A6           0.00000   0.00000   0.00000   0.00000   0.00000
           A7           0.00000   0.00000   0.00000   0.00000   0.00000
           D1           0.00000   0.00000   0.00000   0.00000   0.00000
           D2           0.00000   0.00000   0.00000   0.00000   0.00000
           D3           0.00000   0.00000   0.00000   0.00000   0.00000
                          A1        A2        A3        A4        A5
           A1           0.16000
           A2           0.00000   0.16000
           A3           0.00000   0.00000   0.16000
           A4           0.00000   0.00000   0.00000   0.16000
           A5           0.00000   0.00000   0.00000   0.00000   0.16000
           A6           0.00000   0.00000   0.00000   0.00000   0.00000
           A7           0.00000   0.00000   0.00000   0.00000   0.00000
           D1           0.00000   0.00000   0.00000   0.00000   0.00000
           D2           0.00000   0.00000   0.00000   0.00000   0.00000
           D3           0.00000   0.00000   0.00000   0.00000   0.00000
                          A6        A7        D1        D2        D3
           A6           0.25000
           A7           0.00000   0.16000
           D1           0.00000   0.00000   0.00573
           D2           0.00000   0.00000   0.00000   0.00573
           D3           0.00000   0.00000   0.00000   0.00000   0.00573
 ITU=  0
     Eigenvalues ---    0.00573   0.11335   0.11351   0.11938   0.16000
     Eigenvalues ---    0.16000   0.16000   0.24741   0.37650   0.41308
     Eigenvalues ---    0.41308   0.49563
 RFO step:  Lambda=-1.01872919D-02 EMin= 5.72648772D-03
 Linear search not attempted -- first point.
 Iteration  1 RMS(Cart)=  0.10113064 RMS(Int)=  0.00807340
 Iteration  2 RMS(Cart)=  0.00653882 RMS(Int)=  0.00462407
 Iteration  3 RMS(Cart)=  0.00004084 RMS(Int)=  0.00462398
 Iteration  4 RMS(Cart)=  0.00000066 RMS(Int)=  0.00462398
 ClnCor:  largest displacement from symmetrization is 8.81D-09 for atom     3.
 Variable       Old X    -DE/DX   Delta X   Delta X   Delta X     New X
                                 (Linear)    (Quad)   (Total)
    R1        1.96514  -0.00979   0.00000  -0.02314  -0.02314   1.94201
    R2        1.96514  -0.00979   0.00000  -0.02314  -0.02314   1.94201
    R3        2.74878   0.00734   0.00000   0.01898   0.01898   2.76776
    R4        3.56743   0.00890   0.00000   0.07200   0.07200   3.63943
    R5        1.87009  -0.01201   0.00000  -0.02375  -0.02375   1.84634
    A1        1.78610   0.00504   0.00000   0.05752   0.04553   1.83163
    A2        1.80458   0.01898   0.00000   0.12145   0.11602   1.92060
    A3        2.23717  -0.00526   0.00000  -0.05050  -0.05379   2.18338
    A4        1.80458   0.01898   0.00000   0.12145   0.11602   1.92060
    A5        2.23717  -0.00526   0.00000  -0.05050  -0.05379   2.18338
    A6        1.36107  -0.01204   0.00000  -0.04970  -0.05131   1.30975
    A7        1.86798   0.01555   0.00000   0.09135   0.09135   1.95933
    D1       -0.92858  -0.00875   0.00000  -0.06962  -0.07646  -1.00504
    D2        0.92858   0.00875   0.00000   0.06962   0.07646   1.00504
    D3        3.14159   0.00000   0.00000   0.00000   0.00000   3.14159
         Item               Value     Threshold  Converged?
 Maximum Force            0.018981     0.000450     NO 
 RMS     Force            0.010985     0.000300     NO 
 Maximum Displacement     0.250129     0.001800     NO 
 RMS     Displacement     0.098412     0.001200     NO 
 Predicted change in Energy=-5.559160D-03
 GradGradGradGradGradGradGradGradGradGradGradGradGradGradGradGradGradGrad

                          Input orientation:                          
 ---------------------------------------------------------------------
 Center     Atomic      Atomic             Coordinates (Angstroms)
 Number     Number       Type             X           Y           Z
 ---------------------------------------------------------------------
      1          1           0        1.003371   -0.815011    0.017283
      2          7           0        0.434201   -0.000007    0.277885
      3          1           0        1.003389    0.814988    0.017294
      4          8           0       -0.819091    0.000012   -0.480017
      5          1           0       -0.667913    0.000017   -1.445292
      6          3           0       -0.953957    0.000000    1.612846
 ---------------------------------------------------------------------
                    Distance matrix (angstroms):
                    1          2          3          4          5
     1  H    0.000000
     2  N    1.027667   0.000000
     3  H    1.629999   1.027667   0.000000
     4  O    2.057410   1.464635   2.057410   0.000000
     5  H    2.365711   2.045481   2.365711   0.977042   0.000000
     6  Li   2.653525   1.925904   2.653525   2.097203   3.071486
                    6
     6  Li   0.000000
 Stoichiometry    H3LiNO(1+)
 Framework group  CS[SG(HLiNO),X(H2)]
 Deg. of freedom     8
 Full point group                 CS      NOp   2
 Largest Abelian subgroup         CS      NOp   2
 Largest concise Abelian subgroup CS      NOp   2
                         Standard orientation:                         
 ---------------------------------------------------------------------
 Center     Atomic      Atomic             Coordinates (Angstroms)
 Number     Number       Type             X           Y           Z
 ---------------------------------------------------------------------
      1          1           0        0.414870    1.173263    0.814999
      2          7           0        0.000000    0.704480    0.000000
      3          1           0        0.414870    1.173263   -0.814999
      4          8           0        0.360633   -0.715061    0.000000
      5          1           0        1.328149   -0.851159    0.000000
      6          3           0       -1.680984   -0.235413    0.000000
 ---------------------------------------------------------------------
 Rotational constants (GHZ):     25.5835846     19.7944136     11.8612010
 Standard basis: 6-31+G(d) (6D, 7F)
 There are    46 symmetry adapted cartesian basis functions of A'  symmetry.
 There are    17 symmetry adapted cartesian basis functions of A"  symmetry.
 There are    46 symmetry adapted basis functions of A'  symmetry.
 There are    17 symmetry adapted basis functions of A"  symmetry.
    63 basis functions,   108 primitive gaussians,    63 cartesian basis functions
    10 alpha electrons       10 beta electrons
       nuclear repulsion energy        52.0125004466 Hartrees.
 NAtoms=    6 NActive=    6 NUniq=    5 SFac= 1.44D+00 NAtFMM=   60 NAOKFM=F Big=F
 Integral buffers will be    262144 words long.
 Raffenetti 2 integral format.
 Two-electron integral symmetry is turned on.
 One-electron integrals computed using PRISM.
 NBasis=    63 RedAO= T EigKep=  1.46D-03  NBF=    46    17
 NBsUse=    63 1.00D-06 EigRej= -1.00D+00 NBFU=    46    17
 Initial guess from the checkpoint file:  "C:\Users\hp\Desktop\Chem402210676\Part1\Complex.Conf.M0001.chk"
 B after Tr=     0.000000    0.000000    0.000000
         Rot=    0.999752    0.000000    0.000000   -0.022280 Ang=  -2.55 deg.
 Initial guess orbital symmetries:
       Occupied  (A') (A') (A') (A') (A') (A') (A") (A') (A') (A")
       Virtual   (A') (A') (A') (A') (A') (A') (A') (A') (A') (A')
                 (A') (A') (A') (A') (A') (A') (A') (A') (A') (A')
                 (A') (A') (A') (A') (A') (A') (A') (A') (A') (A')
                 (A') (A') (A') (A') (A') (A') (A') (A') (A") (A")
                 (A") (A") (A") (A") (A") (A") (A") (A") (A") (A")
                 (A") (A") (A")
 ExpMin= 7.40D-03 ExpMax= 5.48D+03 ExpMxC= 8.25D+02 IAcc=3 IRadAn=         5 AccDes= 0.00D+00
 Harris functional with IExCor=  402 and IRadAn=       5 diagonalized for initial guess.
 HarFok:  IExCor=  402 AccDes= 0.00D+00 IRadAn=         5 IDoV= 1 UseB2=F ITyADJ=14
 ICtDFT=  3500011 ScaDFX=  1.000000  1.000000  1.000000  1.000000
 FoFCou: FMM=F IPFlag=           0 FMFlag=      100000 FMFlg1=           0
         NFxFlg=           0 DoJE=T BraDBF=F KetDBF=T FulRan=T
         wScrn=  0.000000 ICntrl=     500 IOpCl=  0 I1Cent=   200000004 NGrid=           0
         NMat0=    1 NMatS0=      1 NMatT0=    0 NMatD0=    1 NMtDS0=    0 NMtDT0=    0
 Petite list used in FoFCou.
 Keep R1 ints in memory in symmetry-blocked form, NReq=3135044.
 Requested convergence on RMS density matrix=1.00D-08 within 128 cycles.
 Requested convergence on MAX density matrix=1.00D-06.
 Requested convergence on             energy=1.00D-06.
 No special actions if energy rises.
 SCF Done:  E(RB3LYP) =  -139.065208825     A.U. after    9 cycles
            NFock=  9  Conv=0.98D-08     -V/T= 2.0097
 Calling FoFJK, ICntrl=      2127 FMM=F ISym2X=1 I1Cent= 0 IOpClX= 0 NMat=1 NMatS=1 NMatT=0.
 ***** Axes restored to original set *****
 -------------------------------------------------------------------
 Center     Atomic                   Forces (Hartrees/Bohr)
 Number     Number              X              Y              Z
 -------------------------------------------------------------------
      1        1          -0.006945107   -0.002218429   -0.000671217
      2        7           0.005880250    0.000000015   -0.011754100
      3        1          -0.006945058    0.002218590   -0.000671187
      4        8           0.011002214   -0.000000210    0.013233218
      5        1           0.002767692   -0.000000029   -0.000217034
      6        3          -0.005759991    0.000000063    0.000080320
 -------------------------------------------------------------------
 Cartesian Forces:  Max     0.013233218 RMS     0.005854756

 GradGradGradGradGradGradGradGradGradGradGradGradGradGradGradGradGradGrad
 Berny optimization.
 Using GEDIIS/GDIIS optimizer.
 FormGI is forming the generalized inverse of G from B-inverse, IUseBI=4.
 Internal  Forces:  Max     0.018522587 RMS     0.007199058
 Search for a local minimum.
 Step number   2 out of a maximum of   25
 All quantities printed in internal units (Hartrees-Bohrs-Radians)
 Mixed Optimization -- RFO/linear search
 Update second derivatives using D2CorX and points    1    2
 DE= -4.29D-03 DEPred=-5.56D-03 R= 7.71D-01
 TightC=F SS=  1.41D+00  RLast= 2.54D-01 DXNew= 5.0454D-01 7.6266D-01
 Trust test= 7.71D-01 RLast= 2.54D-01 DXMaxT set to 5.05D-01
 The second derivative matrix:
                          R1        R2        R3        R4        R5
           R1           0.40854
           R2          -0.00453   0.40854
           R3          -0.01066  -0.01066   0.43059
           R4           0.00530   0.00530   0.00439   0.10797
           R5          -0.00350  -0.00350  -0.01996   0.00529   0.49467
           A1           0.01041   0.01041  -0.01470  -0.00818   0.01384
           A2           0.00091   0.00091   0.04662  -0.00561  -0.00589
           A3          -0.00416  -0.00416  -0.00935   0.00482  -0.00327
           A4           0.00091   0.00091   0.04662  -0.00561  -0.00589
           A5          -0.00416  -0.00416  -0.00935   0.00482  -0.00327
           A6          -0.01455  -0.01455   0.01349   0.01216  -0.01831
           A7           0.00095   0.00095   0.03593  -0.00456  -0.00426
           D1           0.00495   0.00495  -0.01741  -0.00282   0.00812
           D2          -0.00495  -0.00495   0.01741   0.00282  -0.00812
           D3           0.00000   0.00000   0.00000   0.00000   0.00000
                          A1        A2        A3        A4        A5
           A1           0.15550
           A2          -0.02410   0.18481
           A3           0.00933   0.00108   0.15619
           A4          -0.02410   0.02481   0.00108   0.18481
           A5           0.00933   0.00108  -0.00381   0.00108   0.15619
           A6           0.00979   0.02973  -0.01309   0.02973  -0.01309
           A7          -0.01886   0.01874   0.00106   0.01874   0.00106
           D1           0.00302  -0.01731   0.00438  -0.01731   0.00438
           D2          -0.00302   0.01731  -0.00438   0.01731  -0.00438
           D3           0.00000   0.00000   0.00000   0.00000   0.00000
                          A6        A7        D1        D2        D3
           A6           0.23205
           A7           0.02336   0.17414
           D1          -0.00163  -0.01340   0.01099
           D2           0.00163   0.01340  -0.00526   0.01099
           D3           0.00000   0.00000   0.00000   0.00000   0.00573
 ITU=  1  0
 Use linear search instead of GDIIS.
     Eigenvalues ---    0.00573   0.08653   0.11202   0.11732   0.15776
     Eigenvalues ---    0.16000   0.19574   0.25411   0.40014   0.41308
     Eigenvalues ---    0.45531   0.50993
 RFO step:  Lambda=-2.42798713D-03 EMin= 5.72648772D-03
 Quartic linear search produced a step of -0.10920.
 Iteration  1 RMS(Cart)=  0.04260232 RMS(Int)=  0.00108085
 Iteration  2 RMS(Cart)=  0.00103197 RMS(Int)=  0.00074447
 Iteration  3 RMS(Cart)=  0.00000073 RMS(Int)=  0.00074447
 ClnCor:  largest displacement from symmetrization is 4.86D-09 for atom     3.
 Variable       Old X    -DE/DX   Delta X   Delta X   Delta X     New X
                                 (Linear)    (Quad)   (Total)
    R1        1.94201  -0.00192   0.00253  -0.01196  -0.00944   1.93257
    R2        1.94201  -0.00192   0.00253  -0.01196  -0.00944   1.93257
    R3        2.76776  -0.01852  -0.00207  -0.03696  -0.03904   2.72872
    R4        3.63943   0.00421  -0.00786   0.05608   0.04822   3.68765
    R5        1.84634   0.00065   0.00259  -0.00693  -0.00434   1.84200
    A1        1.83163   0.00892  -0.00497   0.06140   0.05686   1.88849
    A2        1.92060  -0.00754  -0.01267  -0.00243  -0.01468   1.90592
    A3        2.18338   0.00172   0.00587  -0.01700  -0.01235   2.17102
    A4        1.92060  -0.00754  -0.01267  -0.00243  -0.01468   1.90592
    A5        2.18338   0.00172   0.00587  -0.01700  -0.01235   2.17102
    A6        1.30975  -0.01350   0.00560  -0.06776  -0.06263   1.24712
    A7        1.95933  -0.00500  -0.00998   0.00320  -0.00677   1.95256
    D1       -1.00504  -0.00106   0.00835  -0.03574  -0.02588  -1.03092
    D2        1.00504   0.00106  -0.00835   0.03574   0.02588   1.03092
    D3        3.14159   0.00000   0.00000   0.00000   0.00000   3.14159
         Item               Value     Threshold  Converged?
 Maximum Force            0.018523     0.000450     NO 
 RMS     Force            0.007199     0.000300     NO 
 Maximum Displacement     0.074646     0.001800     NO 
 RMS     Displacement     0.043209     0.001200     NO 
 Predicted change in Energy=-1.309658D-03
 GradGradGradGradGradGradGradGradGradGradGradGradGradGradGradGradGradGrad

                          Input orientation:                          
 ---------------------------------------------------------------------
 Center     Atomic      Atomic             Coordinates (Angstroms)
 Number     Number       Type             X           Y           Z
 ---------------------------------------------------------------------
      1          1           0        0.997357   -0.828431    0.001565
      2          7           0        0.460542   -0.000007    0.268777
      3          1           0        0.997375    0.828409    0.001576
      4          8           0       -0.797223    0.000012   -0.440516
      5          1           0       -0.669205    0.000017   -1.406817
      6          3           0       -0.988847    0.000000    1.575415
 ---------------------------------------------------------------------
                    Distance matrix (angstroms):
                    1          2          3          4          5
     1  H    0.000000
     2  N    1.022673   0.000000
     3  H    1.656840   1.022673   0.000000
     4  O    2.025406   1.443977   2.025406   0.000000
     5  H    2.333944   2.020878   2.333944   0.974745   0.000000
     6  Li   2.666142   1.951418   2.666142   2.025018   2.999314
                    6
     6  Li   0.000000
 Stoichiometry    H3LiNO(1+)
 Framework group  CS[SG(HLiNO),X(H2)]
 Deg. of freedom     8
 Full point group                 CS      NOp   2
 Largest Abelian subgroup         CS      NOp   2
 Largest concise Abelian subgroup CS      NOp   2
                         Standard orientation:                         
 ---------------------------------------------------------------------
 Center     Atomic      Atomic             Coordinates (Angstroms)
 Number     Number       Type             X           Y           Z
 ---------------------------------------------------------------------
      1          1           0        0.399588    1.161387    0.828420
      2          7           0        0.000000    0.714275    0.000000
      3          1           0        0.399588    1.161387   -0.828420
      4          8           0        0.351644   -0.686231    0.000000
      5          1           0        1.317419   -0.818159    0.000000
      6          3           0       -1.643248   -0.338231    0.000000
 ---------------------------------------------------------------------
 Rotational constants (GHZ):     25.0793164     21.0200347     12.1991611
 Standard basis: 6-31+G(d) (6D, 7F)
 There are    46 symmetry adapted cartesian basis functions of A'  symmetry.
 There are    17 symmetry adapted cartesian basis functions of A"  symmetry.
 There are    46 symmetry adapted basis functions of A'  symmetry.
 There are    17 symmetry adapted basis functions of A"  symmetry.
    63 basis functions,   108 primitive gaussians,    63 cartesian basis functions
    10 alpha electrons       10 beta electrons
       nuclear repulsion energy        52.5824718131 Hartrees.
 NAtoms=    6 NActive=    6 NUniq=    5 SFac= 1.44D+00 NAtFMM=   60 NAOKFM=F Big=F
 Integral buffers will be    262144 words long.
 Raffenetti 2 integral format.
 Two-electron integral symmetry is turned on.
 One-electron integrals computed using PRISM.
 NBasis=    63 RedAO= T EigKep=  1.43D-03  NBF=    46    17
 NBsUse=    63 1.00D-06 EigRej= -1.00D+00 NBFU=    46    17
 Initial guess from the checkpoint file:  "C:\Users\hp\Desktop\Chem402210676\Part1\Complex.Conf.M0001.chk"
 B after Tr=     0.000000    0.000000    0.000000
         Rot=    0.999900    0.000000    0.000000   -0.014171 Ang=  -1.62 deg.
 Initial guess orbital symmetries:
       Occupied  (A') (A') (A') (A') (A') (A') (A") (A') (A') (A")
       Virtual   (A') (A') (A') (A') (A') (A') (A') (A') (A') (A')
                 (A') (A') (A') (A') (A') (A') (A') (A') (A') (A')
                 (A') (A') (A') (A') (A') (A') (A') (A') (A') (A')
                 (A') (A') (A') (A') (A') (A') (A') (A') (A") (A")
                 (A") (A") (A") (A") (A") (A") (A") (A") (A") (A")
                 (A") (A") (A")
 ExpMin= 7.40D-03 ExpMax= 5.48D+03 ExpMxC= 8.25D+02 IAcc=3 IRadAn=         5 AccDes= 0.00D+00
 Harris functional with IExCor=  402 and IRadAn=       5 diagonalized for initial guess.
 HarFok:  IExCor=  402 AccDes= 0.00D+00 IRadAn=         5 IDoV= 1 UseB2=F ITyADJ=14
 ICtDFT=  3500011 ScaDFX=  1.000000  1.000000  1.000000  1.000000
 FoFCou: FMM=F IPFlag=           0 FMFlag=      100000 FMFlg1=           0
         NFxFlg=           0 DoJE=T BraDBF=F KetDBF=T FulRan=T
         wScrn=  0.000000 ICntrl=     500 IOpCl=  0 I1Cent=   200000004 NGrid=           0
         NMat0=    1 NMatS0=      1 NMatT0=    0 NMatD0=    1 NMtDS0=    0 NMtDT0=    0
 Petite list used in FoFCou.
 Keep R1 ints in memory in symmetry-blocked form, NReq=3135044.
 Requested convergence on RMS density matrix=1.00D-08 within 128 cycles.
 Requested convergence on MAX density matrix=1.00D-06.
 Requested convergence on             energy=1.00D-06.
 No special actions if energy rises.
 SCF Done:  E(RB3LYP) =  -139.067086218     A.U. after    9 cycles
            NFock=  9  Conv=0.33D-08     -V/T= 2.0094
 Calling FoFJK, ICntrl=      2127 FMM=F ISym2X=1 I1Cent= 0 IOpClX= 0 NMat=1 NMatS=1 NMatT=0.
 ***** Axes restored to original set *****
 -------------------------------------------------------------------
 Center     Atomic                   Forces (Hartrees/Bohr)
 Number     Number              X              Y              Z
 -------------------------------------------------------------------
      1        1          -0.000884820   -0.001202770   -0.000961541
      2        7           0.003392278   -0.000000019   -0.002669138
      3        1          -0.000884793    0.001202802   -0.000961524
      4        8           0.001705251   -0.000000072    0.007862225
      5        1           0.000604420    0.000000009   -0.002336781
      6        3          -0.003932336    0.000000049   -0.000933241
 -------------------------------------------------------------------
 Cartesian Forces:  Max     0.007862225 RMS     0.002492462

 GradGradGradGradGradGradGradGradGradGradGradGradGradGradGradGradGradGrad
 Berny optimization.
 Using GEDIIS/GDIIS optimizer.
 FormGI is forming the generalized inverse of G from B-inverse, IUseBI=4.
 Internal  Forces:  Max     0.011642436 RMS     0.003574226
 Search for a local minimum.
 Step number   3 out of a maximum of   25
 All quantities printed in internal units (Hartrees-Bohrs-Radians)
 Mixed Optimization -- RFO/linear search
 Update second derivatives using D2CorX and points    1    2    3
 DE= -1.88D-03 DEPred=-1.31D-03 R= 1.43D+00
 TightC=F SS=  1.41D+00  RLast= 1.15D-01 DXNew= 8.4853D-01 3.4628D-01
 Trust test= 1.43D+00 RLast= 1.15D-01 DXMaxT set to 5.05D-01
 The second derivative matrix:
                          R1        R2        R3        R4        R5
           R1           0.41579
           R2           0.00271   0.41579
           R3           0.00256   0.00256   0.42178
           R4           0.00341   0.00341   0.01198   0.10440
           R5           0.00502   0.00502   0.00314   0.00040   0.50292
           A1           0.00221   0.00221  -0.01402  -0.01142   0.00057
           A2           0.00212   0.00212   0.03543  -0.00169  -0.00149
           A3          -0.00292  -0.00292  -0.00821   0.00503  -0.00150
           A4           0.00212   0.00212   0.03543  -0.00169  -0.00149
           A5          -0.00292  -0.00292  -0.00821   0.00503  -0.00150
           A6          -0.02616  -0.02616  -0.06209   0.03517  -0.01888
           A7           0.00365   0.00365   0.03447  -0.00347   0.00025
           D1           0.01006   0.01006  -0.00265  -0.00608   0.01287
           D2          -0.01006  -0.01006   0.00265   0.00608  -0.01287
           D3           0.00000   0.00000   0.00000   0.00000   0.00000
                          A1        A2        A3        A4        A5
           A1           0.15728
           A2          -0.01921   0.17938
           A3           0.00853   0.00093   0.15629
           A4          -0.01921   0.01938   0.00093   0.17938
           A5           0.00853   0.00093  -0.00371   0.00093   0.15629
           A6           0.04943   0.00690  -0.01768   0.00690  -0.01768
           A7          -0.01902   0.01635   0.00145   0.01635   0.00145
           D1          -0.00539  -0.01432   0.00548  -0.01432   0.00548
           D2           0.00539   0.01432  -0.00548   0.01432  -0.00548
           D3           0.00000   0.00000   0.00000   0.00000   0.00000
                          A6        A7        D1        D2        D3
           A6           0.15252
           A7           0.01020   0.17357
           D1          -0.00039  -0.01055   0.01368
           D2           0.00039   0.01055  -0.00795   0.01368
           D3           0.00000   0.00000   0.00000   0.00000   0.00573
 ITU=  1  1  0
 Use linear search instead of GDIIS.
     Eigenvalues ---    0.00573   0.05769   0.11278   0.11624   0.15406
     Eigenvalues ---    0.16000   0.18474   0.21517   0.41308   0.41873
     Eigenvalues ---    0.45336   0.50572
 RFO step:  Lambda=-8.57432286D-04 EMin= 5.72648772D-03
 Quartic linear search produced a step of  0.80545.
 Iteration  1 RMS(Cart)=  0.07552130 RMS(Int)=  0.00319258
 Iteration  2 RMS(Cart)=  0.00387464 RMS(Int)=  0.00194650
 Iteration  3 RMS(Cart)=  0.00001365 RMS(Int)=  0.00194648
 Iteration  4 RMS(Cart)=  0.00000018 RMS(Int)=  0.00194648
 ClnCor:  largest displacement from symmetrization is 3.11D-09 for atom     3.
 Variable       Old X    -DE/DX   Delta X   Delta X   Delta X     New X
                                 (Linear)    (Quad)   (Total)
    R1        1.93257   0.00076  -0.00760   0.00257  -0.00503   1.92754
    R2        1.93257   0.00076  -0.00760   0.00257  -0.00503   1.92754
    R3        2.72872  -0.00473  -0.03144   0.00159  -0.02985   2.69887
    R4        3.68765   0.00230   0.03883   0.02863   0.06746   3.75511
    R5        1.84200   0.00240  -0.00350   0.00537   0.00187   1.84387
    A1        1.88849   0.00236   0.04580   0.00378   0.04668   1.93517
    A2        1.90592  -0.00221  -0.01183   0.00853  -0.00331   1.90261
    A3        2.17102   0.00171  -0.00995   0.00789  -0.00662   2.16441
    A4        1.90592  -0.00221  -0.01183   0.00853  -0.00331   1.90261
    A5        2.17102   0.00171  -0.00995   0.00789  -0.00662   2.16441
    A6        1.24712  -0.01164  -0.05045  -0.06909  -0.12057   1.12655
    A7        1.95256  -0.00055  -0.00546   0.01947   0.01401   1.96657
    D1       -1.03092  -0.00014  -0.02085  -0.00724  -0.02638  -1.05729
    D2        1.03092   0.00014   0.02085   0.00724   0.02638   1.05729
    D3        3.14159   0.00000   0.00000   0.00000   0.00000   3.14159
         Item               Value     Threshold  Converged?
 Maximum Force            0.011642     0.000450     NO 
 RMS     Force            0.003574     0.000300     NO 
 Maximum Displacement     0.162458     0.001800     NO 
 RMS     Displacement     0.078484     0.001200     NO 
 Predicted change in Energy=-9.322242D-04
 GradGradGradGradGradGradGradGradGradGradGradGradGradGradGradGradGradGrad

                          Input orientation:                          
 ---------------------------------------------------------------------
 Center     Atomic      Atomic             Coordinates (Angstroms)
 Number     Number       Type             X           Y           Z
 ---------------------------------------------------------------------
      1          1           0        1.015130   -0.840008   -0.015461
      2          7           0        0.507003   -0.000007    0.261355
      3          1           0        1.015149    0.839986   -0.015450
      4          8           0       -0.772519    0.000011   -0.373093
      5          1           0       -0.709579    0.000017   -1.346796
      6          3           0       -1.055184    0.000001    1.489446
 ---------------------------------------------------------------------
                    Distance matrix (angstroms):
                    1          2          3          4          5
     1  H    0.000000
     2  N    1.020011   0.000000
     3  H    1.679995   1.020011   0.000000
     4  O    2.007293   1.428181   2.007293   0.000000
     5  H    2.335106   2.016488   2.335106   0.975735   0.000000
     6  Li   2.693801   1.987118   2.693801   1.883866   2.857221
                    6
     6  Li   0.000000
 Stoichiometry    H3LiNO(1+)
 Framework group  CS[SG(HLiNO),X(H2)]
 Deg. of freedom     8
 Full point group                 CS      NOp   2
 Largest Abelian subgroup         CS      NOp   2
 Largest concise Abelian subgroup CS      NOp   2
                         Standard orientation:                         
 ---------------------------------------------------------------------
 Center     Atomic      Atomic             Coordinates (Angstroms)
 Number     Number       Type             X           Y           Z
 ---------------------------------------------------------------------
      1          1           0        0.868174    0.875518    0.839997
      2          7           0        0.330422    0.661859    0.000000
      3          1           0        0.868174    0.875518   -0.839997
      4          8           0        0.000000   -0.727574    0.000000
      5          1           0        0.788854   -1.301827    0.000000
      6          3           0       -1.612720    0.246124    0.000000
 ---------------------------------------------------------------------
 Rotational constants (GHZ):     25.8740643     21.8922020     12.7066868
 Standard basis: 6-31+G(d) (6D, 7F)
 There are    46 symmetry adapted cartesian basis functions of A'  symmetry.
 There are    17 symmetry adapted cartesian basis functions of A"  symmetry.
 There are    46 symmetry adapted basis functions of A'  symmetry.
 There are    17 symmetry adapted basis functions of A"  symmetry.
    63 basis functions,   108 primitive gaussians,    63 cartesian basis functions
    10 alpha electrons       10 beta electrons
       nuclear repulsion energy        53.2427328005 Hartrees.
 NAtoms=    6 NActive=    6 NUniq=    5 SFac= 1.44D+00 NAtFMM=   60 NAOKFM=F Big=F
 Integral buffers will be    262144 words long.
 Raffenetti 2 integral format.
 Two-electron integral symmetry is turned on.
 One-electron integrals computed using PRISM.
 NBasis=    63 RedAO= T EigKep=  1.47D-03  NBF=    46    17
 NBsUse=    63 1.00D-06 EigRej= -1.00D+00 NBFU=    46    17
 Initial guess from the checkpoint file:  "C:\Users\hp\Desktop\Chem402210676\Part1\Complex.Conf.M0001.chk"
 B after Tr=     0.000000    0.000000    0.000000
         Rot=    0.977693    0.000000    0.000000    0.210039 Ang=  24.25 deg.
 Initial guess orbital symmetries:
       Occupied  (A') (A') (A') (A') (A') (A') (A") (A') (A") (A')
       Virtual   (A') (A') (A') (A') (A') (A') (A') (A') (A') (A')
                 (A') (A') (A') (A') (A') (A') (A') (A') (A') (A')
                 (A') (A') (A') (A') (A') (A') (A') (A') (A') (A')
                 (A') (A') (A') (A') (A') (A') (A') (A') (A") (A")
                 (A") (A") (A") (A") (A") (A") (A") (A") (A") (A")
                 (A") (A") (A")
 ExpMin= 7.40D-03 ExpMax= 5.48D+03 ExpMxC= 8.25D+02 IAcc=3 IRadAn=         5 AccDes= 0.00D+00
 Harris functional with IExCor=  402 and IRadAn=       5 diagonalized for initial guess.
 HarFok:  IExCor=  402 AccDes= 0.00D+00 IRadAn=         5 IDoV= 1 UseB2=F ITyADJ=14
 ICtDFT=  3500011 ScaDFX=  1.000000  1.000000  1.000000  1.000000
 FoFCou: FMM=F IPFlag=           0 FMFlag=      100000 FMFlg1=           0
         NFxFlg=           0 DoJE=T BraDBF=F KetDBF=T FulRan=T
         wScrn=  0.000000 ICntrl=     500 IOpCl=  0 I1Cent=   200000004 NGrid=           0
         NMat0=    1 NMatS0=      1 NMatT0=    0 NMatD0=    1 NMtDS0=    0 NMtDT0=    0
 Petite list used in FoFCou.
 Keep R1 ints in memory in symmetry-blocked form, NReq=3135044.
 Requested convergence on RMS density matrix=1.00D-08 within 128 cycles.
 Requested convergence on MAX density matrix=1.00D-06.
 Requested convergence on             energy=1.00D-06.
 No special actions if energy rises.
 SCF Done:  E(RB3LYP) =  -139.068029400     A.U. after    9 cycles
            NFock=  9  Conv=0.47D-08     -V/T= 2.0091
 Calling FoFJK, ICntrl=      2127 FMM=F ISym2X=1 I1Cent= 0 IOpClX= 0 NMat=1 NMatS=1 NMatT=0.
 ***** Axes restored to original set *****
 -------------------------------------------------------------------
 Center     Atomic                   Forces (Hartrees/Bohr)
 Number     Number              X              Y              Z
 -------------------------------------------------------------------
      1        1           0.002356550   -0.000041809   -0.001791296
      2        7           0.003666894   -0.000000076    0.005316297
      3        1           0.002356550    0.000041781   -0.001791296
      4        8          -0.005721616    0.000000078   -0.002274369
      5        1          -0.000247543    0.000000011   -0.001274353
      6        3          -0.002410835    0.000000014    0.001815017
 -------------------------------------------------------------------
 Cartesian Forces:  Max     0.005721616 RMS     0.002448787

 GradGradGradGradGradGradGradGradGradGradGradGradGradGradGradGradGradGrad
 Berny optimization.
 Using GEDIIS/GDIIS optimizer.
 FormGI is forming the generalized inverse of G from B-inverse, IUseBI=4.
 Internal  Forces:  Max     0.006928505 RMS     0.002249635
 Search for a local minimum.
 Step number   4 out of a maximum of   25
 All quantities printed in internal units (Hartrees-Bohrs-Radians)
 Mixed Optimization -- RFO/linear search
 Update second derivatives using D2CorX and points    1    2    3    4
 DE= -9.43D-04 DEPred=-9.32D-04 R= 1.01D+00
 TightC=F SS=  1.41D+00  RLast= 1.55D-01 DXNew= 8.4853D-01 4.6389D-01
 Trust test= 1.01D+00 RLast= 1.55D-01 DXMaxT set to 5.05D-01
 The second derivative matrix:
                          R1        R2        R3        R4        R5
           R1           0.41877
           R2           0.00569   0.41877
           R3           0.01840   0.01840   0.48773
           R4           0.00633   0.00633   0.02104   0.09966
           R5           0.00615   0.00615   0.01267   0.00190   0.50259
           A1          -0.00507  -0.00507  -0.04640  -0.01650  -0.00343
           A2           0.00300   0.00300   0.03730  -0.00144  -0.00030
           A3          -0.00166  -0.00166  -0.00177   0.00459  -0.00127
           A4           0.00300   0.00300   0.03730  -0.00144  -0.00030
           A5          -0.00166  -0.00166  -0.00177   0.00459  -0.00127
           A6          -0.01727  -0.01727  -0.03135   0.04946  -0.01131
           A7           0.00481   0.00481   0.03850  -0.00474   0.00111
           D1           0.01148   0.01148   0.00547  -0.00190   0.01362
           D2          -0.01148  -0.01148  -0.00547   0.00190  -0.01362
           D3           0.00000   0.00000   0.00000   0.00000   0.00000
                          A1        A2        A3        A4        A5
           A1           0.17288
           A2          -0.02032   0.17998
           A3           0.00548   0.00130   0.15635
           A4          -0.02032   0.01998   0.00130   0.17998
           A5           0.00548   0.00130  -0.00365   0.00130   0.15635
           A6           0.03365   0.00335  -0.01043   0.00335  -0.01043
           A7          -0.02112   0.01734   0.00133   0.01734   0.00133
           D1          -0.00898  -0.01428   0.00690  -0.01428   0.00690
           D2           0.00898   0.01428  -0.00690   0.01428  -0.00690
           D3           0.00000   0.00000   0.00000   0.00000   0.00000
                          A6        A7        D1        D2        D3
           A6           0.14929
           A7           0.01221   0.17419
           D1          -0.00020  -0.00942   0.01316
           D2           0.00020   0.00942  -0.00744   0.01316
           D3           0.00000   0.00000   0.00000   0.00000   0.00573
 ITU=  1  1  1  0
 Use linear search instead of GDIIS.
     Eigenvalues ---    0.00573   0.05550   0.11171   0.12340   0.15472
     Eigenvalues ---    0.16000   0.18692   0.21437   0.41308   0.41728
     Eigenvalues ---    0.49471   0.53054
 RFO step:  Lambda=-2.32537185D-04 EMin= 5.72648772D-03
 Quartic linear search produced a step of -0.07155.
 Iteration  1 RMS(Cart)=  0.00963860 RMS(Int)=  0.00008174
 Iteration  2 RMS(Cart)=  0.00005103 RMS(Int)=  0.00007430
 Iteration  3 RMS(Cart)=  0.00000002 RMS(Int)=  0.00007430
 ClnCor:  largest displacement from symmetrization is 2.02D-10 for atom     3.
 Variable       Old X    -DE/DX   Delta X   Delta X   Delta X     New X
                                 (Linear)    (Quad)   (Total)
    R1        1.92754   0.00170   0.00036   0.00193   0.00229   1.92983
    R2        1.92754   0.00170   0.00036   0.00193   0.00229   1.92983
    R3        2.69887   0.00693   0.00214   0.00937   0.01151   2.71038
    R4        3.75511   0.00301  -0.00483   0.03474   0.02992   3.78502
    R5        1.84387   0.00125  -0.00013   0.00156   0.00142   1.84530
    A1        1.93517  -0.00221  -0.00334  -0.00648  -0.00975   1.92542
    A2        1.90261   0.00007   0.00024  -0.00409  -0.00387   1.89874
    A3        2.16441   0.00119   0.00047   0.00609   0.00674   2.17114
    A4        1.90261   0.00007   0.00024  -0.00409  -0.00387   1.89874
    A5        2.16441   0.00119   0.00047   0.00609   0.00674   2.17114
    A6        1.12655   0.00007   0.00863  -0.01393  -0.00527   1.12128
    A7        1.96657   0.00062  -0.00100   0.00364   0.00264   1.96921
    D1       -1.05729   0.00131   0.00189   0.00646   0.00825  -1.04904
    D2        1.05729  -0.00131  -0.00189  -0.00646  -0.00825   1.04904
    D3        3.14159   0.00000   0.00000   0.00000   0.00000   3.14159
         Item               Value     Threshold  Converged?
 Maximum Force            0.006929     0.000450     NO 
 RMS     Force            0.002250     0.000300     NO 
 Maximum Displacement     0.025747     0.001800     NO 
 RMS     Displacement     0.009646     0.001200     NO 
 Predicted change in Energy=-1.179281D-04
 GradGradGradGradGradGradGradGradGradGradGradGradGradGradGradGradGradGrad

                          Input orientation:                          
 ---------------------------------------------------------------------
 Center     Atomic      Atomic             Coordinates (Angstroms)
 Number     Number       Type             X           Y           Z
 ---------------------------------------------------------------------
      1          1           0        1.020935   -0.838172   -0.020585
      2          7           0        0.512220   -0.000007    0.265042
      3          1           0        1.020953    0.838150   -0.020574
      4          8           0       -0.772814    0.000011   -0.371998
      5          1           0       -0.712485    0.000017   -1.346622
      6          3           0       -1.068809    0.000002    1.494737
 ---------------------------------------------------------------------
                    Distance matrix (angstroms):
                    1          2          3          4          5
     1  H    0.000000
     2  N    1.021222   0.000000
     3  H    1.676323   1.021222   0.000000
     4  O    2.010865   1.434271   2.010865   0.000000
     5  H    2.337879   2.024194   2.337879   0.976489   0.000000
     6  Li   2.713995   2.002948   2.713995   1.890057   2.863614
                    6
     6  Li   0.000000
 Stoichiometry    H3LiNO(1+)
 Framework group  CS[SG(HLiNO),X(H2)]
 Deg. of freedom     8
 Full point group                 CS      NOp   2
 Largest Abelian subgroup         CS      NOp   2
 Largest concise Abelian subgroup CS      NOp   2
                         Standard orientation:                         
 ---------------------------------------------------------------------
 Center     Atomic      Atomic             Coordinates (Angstroms)
 Number     Number       Type             X           Y           Z
 ---------------------------------------------------------------------
      1          1           0        0.877708    0.874936    0.838161
      2          7           0        0.332695    0.666749    0.000000
      3          1           0        0.877708    0.874936   -0.838161
      4          8           0        0.000000   -0.728403    0.000000
      5          1           0        0.787586   -1.305670    0.000000
      6          3           0       -1.623956    0.238594    0.000000
 ---------------------------------------------------------------------
 Rotational constants (GHZ):     25.8180407     21.5747741     12.5819040
 Standard basis: 6-31+G(d) (6D, 7F)
 There are    46 symmetry adapted cartesian basis functions of A'  symmetry.
 There are    17 symmetry adapted cartesian basis functions of A"  symmetry.
 There are    46 symmetry adapted basis functions of A'  symmetry.
 There are    17 symmetry adapted basis functions of A"  symmetry.
    63 basis functions,   108 primitive gaussians,    63 cartesian basis functions
    10 alpha electrons       10 beta electrons
       nuclear repulsion energy        53.0520438873 Hartrees.
 NAtoms=    6 NActive=    6 NUniq=    5 SFac= 1.44D+00 NAtFMM=   60 NAOKFM=F Big=F
 Integral buffers will be    262144 words long.
 Raffenetti 2 integral format.
 Two-electron integral symmetry is turned on.
 One-electron integrals computed using PRISM.
 NBasis=    63 RedAO= T EigKep=  1.51D-03  NBF=    46    17
 NBsUse=    63 1.00D-06 EigRej= -1.00D+00 NBFU=    46    17
 Initial guess from the checkpoint file:  "C:\Users\hp\Desktop\Chem402210676\Part1\Complex.Conf.M0001.chk"
 B after Tr=     0.000000    0.000000    0.000000
         Rot=    1.000000    0.000000    0.000000   -0.000538 Ang=  -0.06 deg.
 Initial guess orbital symmetries:
       Occupied  (A') (A') (A') (A') (A') (A') (A") (A') (A") (A')
       Virtual   (A') (A') (A') (A') (A') (A') (A') (A') (A') (A')
                 (A') (A') (A') (A') (A') (A') (A') (A') (A') (A')
                 (A') (A') (A') (A') (A') (A') (A') (A') (A') (A')
                 (A') (A') (A') (A') (A') (A') (A') (A') (A") (A")
                 (A") (A") (A") (A") (A") (A") (A") (A") (A") (A")
                 (A") (A") (A")
 ExpMin= 7.40D-03 ExpMax= 5.48D+03 ExpMxC= 8.25D+02 IAcc=3 IRadAn=         5 AccDes= 0.00D+00
 Harris functional with IExCor=  402 and IRadAn=       5 diagonalized for initial guess.
 HarFok:  IExCor=  402 AccDes= 0.00D+00 IRadAn=         5 IDoV= 1 UseB2=F ITyADJ=14
 ICtDFT=  3500011 ScaDFX=  1.000000  1.000000  1.000000  1.000000
 FoFCou: FMM=F IPFlag=           0 FMFlag=      100000 FMFlg1=           0
         NFxFlg=           0 DoJE=T BraDBF=F KetDBF=T FulRan=T
         wScrn=  0.000000 ICntrl=     500 IOpCl=  0 I1Cent=   200000004 NGrid=           0
         NMat0=    1 NMatS0=      1 NMatT0=    0 NMatD0=    1 NMtDS0=    0 NMtDT0=    0
 Petite list used in FoFCou.
 Keep R1 ints in memory in symmetry-blocked form, NReq=3135044.
 Requested convergence on RMS density matrix=1.00D-08 within 128 cycles.
 Requested convergence on MAX density matrix=1.00D-06.
 Requested convergence on             energy=1.00D-06.
 No special actions if energy rises.
 SCF Done:  E(RB3LYP) =  -139.068218119     A.U. after    8 cycles
            NFock=  8  Conv=0.46D-08     -V/T= 2.0093
 Calling FoFJK, ICntrl=      2127 FMM=F ISym2X=1 I1Cent= 0 IOpClX= 0 NMat=1 NMatS=1 NMatT=0.
 ***** Axes restored to original set *****
 -------------------------------------------------------------------
 Center     Atomic                   Forces (Hartrees/Bohr)
 Number     Number              X              Y              Z
 -------------------------------------------------------------------
      1        1           0.001464620    0.000219739   -0.001164938
      2        7           0.001899372   -0.000000041    0.002976955
      3        1           0.001464616   -0.000219755   -0.001164941
      4        8          -0.003562295    0.000000045   -0.000831972
      5        1           0.000182851    0.000000002   -0.000521232
      6        3          -0.001449164    0.000000011    0.000706128
 -------------------------------------------------------------------
 Cartesian Forces:  Max     0.003562295 RMS     0.001411397

 GradGradGradGradGradGradGradGradGradGradGradGradGradGradGradGradGradGrad
 Berny optimization.
 Using GEDIIS/GDIIS optimizer.
 FormGI is forming the generalized inverse of G from B-inverse, IUseBI=4.
 Internal  Forces:  Max     0.003633800 RMS     0.001263315
 Search for a local minimum.
 Step number   5 out of a maximum of   25
 All quantities printed in internal units (Hartrees-Bohrs-Radians)
 Mixed Optimization -- RFO/linear search
 Update second derivatives using D2CorX and points    1    2    3    4    5
 DE= -1.89D-04 DEPred=-1.18D-04 R= 1.60D+00
 TightC=F SS=  1.41D+00  RLast= 3.78D-02 DXNew= 8.4853D-01 1.1331D-01
 Trust test= 1.60D+00 RLast= 3.78D-02 DXMaxT set to 5.05D-01
 The second derivative matrix:
                          R1        R2        R3        R4        R5
           R1           0.41386
           R2           0.00079   0.41386
           R3          -0.00295  -0.00295   0.40198
           R4          -0.00412  -0.00412  -0.02115   0.07940
           R5           0.00341   0.00341  -0.00014  -0.00404   0.50150
           A1           0.00899   0.00899   0.00913   0.01183   0.00704
           A2           0.00524   0.00524   0.04921   0.00467   0.00117
           A3          -0.00771  -0.00771  -0.02678  -0.00795  -0.00554
           A4           0.00524   0.00524   0.04921   0.00467   0.00117
           A5          -0.00771  -0.00771  -0.02678  -0.00795  -0.00554
           A6          -0.00767  -0.00767   0.00664   0.06852  -0.00302
           A7           0.00657   0.00657   0.04782   0.00093   0.00346
           D1           0.01190   0.01190   0.00332  -0.00301   0.01482
           D2          -0.01190  -0.01190  -0.00332   0.00301  -0.01482
           D3           0.00000   0.00000   0.00000   0.00000   0.00000
                          A1        A2        A3        A4        A5
           A1           0.14608
           A2          -0.02535   0.18037
           A3           0.01806   0.00324   0.15069
           A4          -0.02535   0.02037   0.00324   0.18037
           A5           0.01806   0.00324  -0.00931   0.00324   0.15069
           A6           0.02149   0.00215  -0.00466   0.00215  -0.00466
           A7          -0.01859   0.01948   0.00033   0.01948   0.00033
           D1          -0.00618  -0.01479   0.00612  -0.01479   0.00612
           D2           0.00618   0.01479  -0.00612   0.01479  -0.00612
           D3           0.00000   0.00000   0.00000   0.00000   0.00000
                          A6        A7        D1        D2        D3
           A6           0.15127
           A7           0.01970   0.18152
           D1           0.00289  -0.00854   0.01438
           D2          -0.00289   0.00854  -0.00865   0.01438
           D3           0.00000   0.00000   0.00000   0.00000   0.00573
 ITU=  1  1  1  1  0
 Use linear search instead of GDIIS.
     Eigenvalues ---    0.00573   0.03456   0.08887   0.11148   0.15348
     Eigenvalues ---    0.16000   0.20283   0.21423   0.41308   0.41493
     Eigenvalues ---    0.43325   0.50208
 RFO step:  Lambda=-7.83765801D-05 EMin= 5.72648772D-03
 Quartic linear search produced a step of  1.48218.
 Iteration  1 RMS(Cart)=  0.02705532 RMS(Int)=  0.00043280
 Iteration  2 RMS(Cart)=  0.00053805 RMS(Int)=  0.00032421
 Iteration  3 RMS(Cart)=  0.00000084 RMS(Int)=  0.00032421
 ClnCor:  largest displacement from symmetrization is 1.24D-08 for atom     3.
 Variable       Old X    -DE/DX   Delta X   Delta X   Delta X     New X
                                 (Linear)    (Quad)   (Total)
    R1        1.92983   0.00088   0.00339  -0.00083   0.00257   1.93240
    R2        1.92983   0.00088   0.00339  -0.00083   0.00257   1.93240
    R3        2.71038   0.00363   0.01706  -0.00002   0.01704   2.72742
    R4        3.78502   0.00157   0.04434   0.01843   0.06276   3.84779
    R5        1.84530   0.00053   0.00211  -0.00102   0.00109   1.84639
    A1        1.92542  -0.00147  -0.01445  -0.00383  -0.01892   1.90650
    A2        1.89874   0.00003  -0.00574  -0.00064  -0.00641   1.89233
    A3        2.17114   0.00090   0.00998   0.00475   0.01399   2.18513
    A4        1.89874   0.00003  -0.00574  -0.00064  -0.00641   1.89233
    A5        2.17114   0.00090   0.00998   0.00475   0.01399   2.18513
    A6        1.12128  -0.00104  -0.00781  -0.02463  -0.03255   1.08873
    A7        1.96921  -0.00026   0.00391  -0.00591  -0.00200   1.96721
    D1       -1.04904   0.00087   0.01223   0.00270   0.01506  -1.03398
    D2        1.04904  -0.00087  -0.01223  -0.00270  -0.01506   1.03398
    D3        3.14159   0.00000   0.00000   0.00000   0.00000   3.14159
         Item               Value     Threshold  Converged?
 Maximum Force            0.003634     0.000450     NO 
 RMS     Force            0.001263     0.000300     NO 
 Maximum Displacement     0.069692     0.001800     NO 
 RMS     Displacement     0.027357     0.001200     NO 
 Predicted change in Energy=-1.298106D-04
 GradGradGradGradGradGradGradGradGradGradGradGradGradGradGradGradGradGrad

                          Input orientation:                          
 ---------------------------------------------------------------------
 Center     Atomic      Atomic             Coordinates (Angstroms)
 Number     Number       Type             X           Y           Z
 ---------------------------------------------------------------------
      1          1           0        1.034764   -0.833722   -0.035313
      2          7           0        0.528195   -0.000008    0.271246
      3          1           0        1.034782    0.833700   -0.035302
      4          8           0       -0.771851    0.000011   -0.355620
      5          1           0       -0.720202    0.000017   -1.331322
      6          3           0       -1.105688    0.000002    1.486310
 ---------------------------------------------------------------------
                    Distance matrix (angstroms):
                    1          2          3          4          5
     1  H    0.000000
     2  N    1.022580   0.000000
     3  H    1.667422   1.022580   0.000000
     4  O    2.015332   1.443288   2.015332   0.000000
     5  H    2.335522   2.031433   2.335522   0.977068   0.000000
     6  Li   2.755353   2.036162   2.755353   1.871939   2.843879
                    6
     6  Li   0.000000
 Stoichiometry    H3LiNO(1+)
 Framework group  CS[SG(HLiNO),X(H2)]
 Deg. of freedom     8
 Full point group                 CS      NOp   2
 Largest Abelian subgroup         CS      NOp   2
 Largest concise Abelian subgroup CS      NOp   2
                         Standard orientation:                         
 ---------------------------------------------------------------------
 Center     Atomic      Atomic             Coordinates (Angstroms)
 Number     Number       Type             X           Y           Z
 ---------------------------------------------------------------------
      1          1           0        0.892349    0.880791    0.833711
      2          7           0        0.334771    0.681531    0.000000
      3          1           0        0.892349    0.880791   -0.833711
      4          8           0        0.000000   -0.722395    0.000000
      5          1           0        0.789213   -1.298419    0.000000
      6          3           0       -1.639104    0.181760    0.000000
 ---------------------------------------------------------------------
 Rotational constants (GHZ):     26.3897025     20.8810143     12.4626887
 Standard basis: 6-31+G(d) (6D, 7F)
 There are    46 symmetry adapted cartesian basis functions of A'  symmetry.
 There are    17 symmetry adapted cartesian basis functions of A"  symmetry.
 There are    46 symmetry adapted basis functions of A'  symmetry.
 There are    17 symmetry adapted basis functions of A"  symmetry.
    63 basis functions,   108 primitive gaussians,    63 cartesian basis functions
    10 alpha electrons       10 beta electrons
       nuclear repulsion energy        52.8578716673 Hartrees.
 NAtoms=    6 NActive=    6 NUniq=    5 SFac= 1.44D+00 NAtFMM=   60 NAOKFM=F Big=F
 Integral buffers will be    262144 words long.
 Raffenetti 2 integral format.
 Two-electron integral symmetry is turned on.
 One-electron integrals computed using PRISM.
 NBasis=    63 RedAO= T EigKep=  1.60D-03  NBF=    46    17
 NBsUse=    63 1.00D-06 EigRej= -1.00D+00 NBFU=    46    17
 Initial guess from the checkpoint file:  "C:\Users\hp\Desktop\Chem402210676\Part1\Complex.Conf.M0001.chk"
 B after Tr=     0.000000    0.000000    0.000000
         Rot=    0.999975    0.000000    0.000000   -0.007023 Ang=  -0.80 deg.
 Initial guess orbital symmetries:
       Occupied  (A') (A') (A') (A') (A') (A') (A") (A') (A") (A')
       Virtual   (A') (A') (A') (A') (A') (A') (A') (A') (A') (A')
                 (A') (A') (A') (A') (A') (A') (A') (A') (A') (A')
                 (A') (A') (A') (A') (A') (A') (A') (A') (A') (A')
                 (A') (A') (A') (A') (A') (A') (A') (A') (A") (A")
                 (A") (A") (A") (A") (A") (A") (A") (A") (A") (A")
                 (A") (A") (A")
 ExpMin= 7.40D-03 ExpMax= 5.48D+03 ExpMxC= 8.25D+02 IAcc=3 IRadAn=         5 AccDes= 0.00D+00
 Harris functional with IExCor=  402 and IRadAn=       5 diagonalized for initial guess.
 HarFok:  IExCor=  402 AccDes= 0.00D+00 IRadAn=         5 IDoV= 1 UseB2=F ITyADJ=14
 ICtDFT=  3500011 ScaDFX=  1.000000  1.000000  1.000000  1.000000
 FoFCou: FMM=F IPFlag=           0 FMFlag=      100000 FMFlg1=           0
         NFxFlg=           0 DoJE=T BraDBF=F KetDBF=T FulRan=T
         wScrn=  0.000000 ICntrl=     500 IOpCl=  0 I1Cent=   200000004 NGrid=           0
         NMat0=    1 NMatS0=      1 NMatT0=    0 NMatD0=    1 NMtDS0=    0 NMtDT0=    0
 Petite list used in FoFCou.
 Keep R1 ints in memory in symmetry-blocked form, NReq=3135044.
 Requested convergence on RMS density matrix=1.00D-08 within 128 cycles.
 Requested convergence on MAX density matrix=1.00D-06.
 Requested convergence on             energy=1.00D-06.
 No special actions if energy rises.
 SCF Done:  E(RB3LYP) =  -139.068340515     A.U. after    9 cycles
            NFock=  9  Conv=0.25D-08     -V/T= 2.0094
 Calling FoFJK, ICntrl=      2127 FMM=F ISym2X=1 I1Cent= 0 IOpClX= 0 NMat=1 NMatS=1 NMatT=0.
 ***** Axes restored to original set *****
 -------------------------------------------------------------------
 Center     Atomic                   Forces (Hartrees/Bohr)
 Number     Number              X              Y              Z
 -------------------------------------------------------------------
      1        1           0.000024262   -0.000075612   -0.000043753
      2        7          -0.000291427    0.000000002    0.000242058
      3        1           0.000024264    0.000075612   -0.000043752
      4        8           0.000340605    0.000000002   -0.000914343
      5        1          -0.000090969    0.000000000    0.000169085
      6        3          -0.000006733   -0.000000004    0.000590705
 -------------------------------------------------------------------
 Cartesian Forces:  Max     0.000914343 RMS     0.000288467

 GradGradGradGradGradGradGradGradGradGradGradGradGradGradGradGradGradGrad
 Berny optimization.
 Using GEDIIS/GDIIS optimizer.
 FormGI is forming the generalized inverse of G from B-inverse, IUseBI=4.
 Internal  Forces:  Max     0.001841047 RMS     0.000492055
 Search for a local minimum.
 Step number   6 out of a maximum of   25
 All quantities printed in internal units (Hartrees-Bohrs-Radians)
 Mixed Optimization -- En-DIIS/RFO-DIIS
 Update second derivatives using D2CorX and points    1    2    3    4    5
                                                      6
 DE= -1.22D-04 DEPred=-1.30D-04 R= 9.43D-01
 TightC=F SS=  1.41D+00  RLast= 8.12D-02 DXNew= 8.4853D-01 2.4358D-01
 Trust test= 9.43D-01 RLast= 8.12D-02 DXMaxT set to 5.05D-01
 The second derivative matrix:
                          R1        R2        R3        R4        R5
           R1           0.41195
           R2          -0.00113   0.41195
           R3          -0.00878  -0.00878   0.38764
           R4          -0.00619  -0.00619  -0.02858   0.07284
           R5           0.00209   0.00209  -0.00361  -0.00422   0.50082
           A1           0.01141   0.01141   0.01616   0.01682   0.00908
           A2           0.00559   0.00559   0.05203   0.00573   0.00132
           A3          -0.00805  -0.00805  -0.02749  -0.00943  -0.00518
           A4           0.00559   0.00559   0.05203   0.00573   0.00132
           A5          -0.00805  -0.00805  -0.02749  -0.00943  -0.00518
           A6          -0.01401  -0.01401  -0.01736   0.06351  -0.01140
           A7           0.00508   0.00508   0.04374   0.00013   0.00213
           D1           0.01115   0.01115   0.00104  -0.00349   0.01460
           D2          -0.01115  -0.01115  -0.00104   0.00349  -0.01460
           D3           0.00000   0.00000   0.00000   0.00000   0.00000
                          A1        A2        A3        A4        A5
           A1           0.14419
           A2          -0.02649   0.18074
           A3           0.01909   0.00373   0.15092
           A4          -0.02649   0.02074   0.00373   0.18074
           A5           0.01909   0.00373  -0.00908   0.00373   0.15092
           A6           0.02600   0.00100  -0.00998   0.00100  -0.00998
           A7          -0.01672   0.01960  -0.00037   0.01960  -0.00037
           D1          -0.00507  -0.01464   0.00651  -0.01464   0.00651
           D2           0.00507   0.01464  -0.00651   0.01464  -0.00651
           D3           0.00000   0.00000   0.00000   0.00000   0.00000
                          A6        A7        D1        D2        D3
           A6           0.17057
           A7           0.01898   0.18118
           D1          -0.00362  -0.00953   0.01421
           D2           0.00362   0.00953  -0.00848   0.01421
           D3           0.00000   0.00000   0.00000   0.00000   0.00573
 ITU=  1  1  1  1  1  0
 Use linear search instead of GDIIS.
     Eigenvalues ---    0.00573   0.03767   0.07841   0.10977   0.15377
     Eigenvalues ---    0.16000   0.20873   0.22080   0.40805   0.41308
     Eigenvalues ---    0.42645   0.50186
 RFO step:  Lambda=-1.96163350D-05 EMin= 5.72648772D-03
 Quartic linear search produced a step of -0.11115.
 Iteration  1 RMS(Cart)=  0.00914828 RMS(Int)=  0.00003824
 Iteration  2 RMS(Cart)=  0.00003584 RMS(Int)=  0.00001658
 Iteration  3 RMS(Cart)=  0.00000000 RMS(Int)=  0.00001658
 ClnCor:  largest displacement from symmetrization is 4.00D-09 for atom     3.
 Variable       Old X    -DE/DX   Delta X   Delta X   Delta X     New X
                                 (Linear)    (Quad)   (Total)
    R1        1.93240   0.00009  -0.00029   0.00091   0.00063   1.93302
    R2        1.93240   0.00009  -0.00029   0.00091   0.00063   1.93302
    R3        2.72742   0.00010  -0.00189   0.00273   0.00083   2.72825
    R4        3.84779   0.00035  -0.00698   0.00132  -0.00565   3.84214
    R5        1.84639  -0.00018  -0.00012  -0.00001  -0.00014   1.84625
    A1        1.90650  -0.00005   0.00210  -0.00464  -0.00251   1.90399
    A2        1.89233  -0.00005   0.00071  -0.00113  -0.00042   1.89191
    A3        2.18513  -0.00009  -0.00155   0.00192   0.00041   2.18553
    A4        1.89233  -0.00005   0.00071  -0.00113  -0.00042   1.89191
    A5        2.18513  -0.00009  -0.00155   0.00192   0.00041   2.18553
    A6        1.08873   0.00184   0.00362   0.01003   0.01366   1.10239
    A7        1.96721   0.00017   0.00022  -0.00092  -0.00070   1.96651
    D1       -1.03398   0.00006  -0.00167   0.00340   0.00173  -1.03225
    D2        1.03398  -0.00006   0.00167  -0.00340  -0.00173   1.03225
    D3        3.14159   0.00000   0.00000   0.00000   0.00000   3.14159
         Item               Value     Threshold  Converged?
 Maximum Force            0.001841     0.000450     NO 
 RMS     Force            0.000492     0.000300     NO 
 Maximum Displacement     0.020770     0.001800     NO 
 RMS     Displacement     0.009129     0.001200     NO 
 Predicted change in Energy=-1.178391D-05
 GradGradGradGradGradGradGradGradGradGradGradGradGradGradGradGradGradGrad

                          Input orientation:                          
 ---------------------------------------------------------------------
 Center     Atomic      Atomic             Coordinates (Angstroms)
 Number     Number       Type             X           Y           Z
 ---------------------------------------------------------------------
      1          1           0        1.032121   -0.833249   -0.033544
      2          7           0        0.523251   -0.000008    0.271593
      3          1           0        1.032139    0.833227   -0.033532
      4          8           0       -0.773396    0.000011   -0.363278
      5          1           0       -0.715199    0.000017   -1.338540
      6          3           0       -1.098915    0.000002    1.497302
 ---------------------------------------------------------------------
                    Distance matrix (angstroms):
                    1          2          3          4          5
     1  H    0.000000
     2  N    1.022912   0.000000
     3  H    1.666476   1.022912   0.000000
     4  O    2.015673   1.443729   2.015673   0.000000
     5  H    2.334625   2.031326   2.334625   0.976996   0.000000
     6  Li   2.753018   2.033171   2.753018   1.888841   2.861684
                    6
     6  Li   0.000000
 Stoichiometry    H3LiNO(1+)
 Framework group  CS[SG(HLiNO),X(H2)]
 Deg. of freedom     8
 Full point group                 CS      NOp   2
 Largest Abelian subgroup         CS      NOp   2
 Largest concise Abelian subgroup CS      NOp   2
                         Standard orientation:                         
 ---------------------------------------------------------------------
 Center     Atomic      Atomic             Coordinates (Angstroms)
 Number     Number       Type             X           Y           Z
 ---------------------------------------------------------------------
      1          1           0        0.894689    0.875994    0.833238
      2          7           0        0.335473    0.677651    0.000000
      3          1           0        0.894689    0.875994   -0.833238
      4          8           0        0.000000   -0.726561    0.000000
      5          1           0        0.789313   -1.302327    0.000000
      6          3           0       -1.642335    0.206422    0.000000
 ---------------------------------------------------------------------
 Rotational constants (GHZ):     26.0275362     20.9660398     12.4102033
 Standard basis: 6-31+G(d) (6D, 7F)
 There are    46 symmetry adapted cartesian basis functions of A'  symmetry.
 There are    17 symmetry adapted cartesian basis functions of A"  symmetry.
 There are    46 symmetry adapted basis functions of A'  symmetry.
 There are    17 symmetry adapted basis functions of A"  symmetry.
    63 basis functions,   108 primitive gaussians,    63 cartesian basis functions
    10 alpha electrons       10 beta electrons
       nuclear repulsion energy        52.7941235569 Hartrees.
 NAtoms=    6 NActive=    6 NUniq=    5 SFac= 1.44D+00 NAtFMM=   60 NAOKFM=F Big=F
 Integral buffers will be    262144 words long.
 Raffenetti 2 integral format.
 Two-electron integral symmetry is turned on.
 One-electron integrals computed using PRISM.
 NBasis=    63 RedAO= T EigKep=  1.59D-03  NBF=    46    17
 NBsUse=    63 1.00D-06 EigRej= -1.00D+00 NBFU=    46    17
 Initial guess from the checkpoint file:  "C:\Users\hp\Desktop\Chem402210676\Part1\Complex.Conf.M0001.chk"
 B after Tr=     0.000000    0.000000    0.000000
         Rot=    0.999994    0.000000    0.000000    0.003376 Ang=   0.39 deg.
 Initial guess orbital symmetries:
       Occupied  (A') (A') (A') (A') (A') (A') (A") (A') (A") (A')
       Virtual   (A') (A') (A') (A') (A') (A') (A') (A') (A') (A')
                 (A') (A') (A') (A') (A') (A') (A') (A') (A') (A')
                 (A') (A') (A') (A') (A') (A') (A') (A') (A') (A')
                 (A') (A') (A') (A') (A') (A') (A') (A') (A") (A")
                 (A") (A") (A") (A") (A") (A") (A") (A") (A") (A")
                 (A") (A") (A")
 ExpMin= 7.40D-03 ExpMax= 5.48D+03 ExpMxC= 8.25D+02 IAcc=3 IRadAn=         5 AccDes= 0.00D+00
 Harris functional with IExCor=  402 and IRadAn=       5 diagonalized for initial guess.
 HarFok:  IExCor=  402 AccDes= 0.00D+00 IRadAn=         5 IDoV= 1 UseB2=F ITyADJ=14
 ICtDFT=  3500011 ScaDFX=  1.000000  1.000000  1.000000  1.000000
 FoFCou: FMM=F IPFlag=           0 FMFlag=      100000 FMFlg1=           0
         NFxFlg=           0 DoJE=T BraDBF=F KetDBF=T FulRan=T
         wScrn=  0.000000 ICntrl=     500 IOpCl=  0 I1Cent=   200000004 NGrid=           0
         NMat0=    1 NMatS0=      1 NMatT0=    0 NMatD0=    1 NMtDS0=    0 NMtDT0=    0
 Petite list used in FoFCou.
 Keep R1 ints in memory in symmetry-blocked form, NReq=3135044.
 Requested convergence on RMS density matrix=1.00D-08 within 128 cycles.
 Requested convergence on MAX density matrix=1.00D-06.
 Requested convergence on             energy=1.00D-06.
 No special actions if energy rises.
 SCF Done:  E(RB3LYP) =  -139.068344213     A.U. after    8 cycles
            NFock=  8  Conv=0.56D-08     -V/T= 2.0094
 Calling FoFJK, ICntrl=      2127 FMM=F ISym2X=1 I1Cent= 0 IOpClX= 0 NMat=1 NMatS=1 NMatT=0.
 ***** Axes restored to original set *****
 -------------------------------------------------------------------
 Center     Atomic                   Forces (Hartrees/Bohr)
 Number     Number              X              Y              Z
 -------------------------------------------------------------------
      1        1          -0.000098116    0.000018485    0.000114116
      2        7          -0.000104899    0.000000004   -0.000370779
      3        1          -0.000098116   -0.000018484    0.000114116
      4        8           0.000246011   -0.000000006    0.000473296
      5        1          -0.000011320    0.000000000    0.000073847
      6        3           0.000066440    0.000000002   -0.000404596
 -------------------------------------------------------------------
 Cartesian Forces:  Max     0.000473296 RMS     0.000190422

 GradGradGradGradGradGradGradGradGradGradGradGradGradGradGradGradGradGrad
 Berny optimization.
 Using GEDIIS/GDIIS optimizer.
 FormGI is forming the generalized inverse of G from B-inverse, IUseBI=4.
 Internal  Forces:  Max     0.001036889 RMS     0.000308512
 Search for a local minimum.
 Step number   7 out of a maximum of   25
 All quantities printed in internal units (Hartrees-Bohrs-Radians)
 Mixed Optimization -- En-DIIS/RFO-DIIS
 Swapping is turned off.
 Update second derivatives using D2CorX and points    1    2    3    4    5
                                                      6    7
 DE= -3.70D-06 DEPred=-1.18D-05 R= 3.14D-01
 Trust test= 3.14D-01 RLast= 1.53D-02 DXMaxT set to 5.05D-01
 The second derivative matrix:
                          R1        R2        R3        R4        R5
           R1           0.41301
           R2          -0.00007   0.41301
           R3          -0.00437  -0.00437   0.40431
           R4          -0.00583  -0.00583  -0.02355   0.08516
           R5           0.00352   0.00352  -0.00021  -0.00421   0.50156
           A1           0.00971   0.00971   0.00855   0.01672   0.00768
           A2           0.00519   0.00519   0.05024   0.00437   0.00067
           A3          -0.00797  -0.00797  -0.02670  -0.01045  -0.00477
           A4           0.00519   0.00519   0.05024   0.00437   0.00067
           A5          -0.00797  -0.00797  -0.02670  -0.01045  -0.00477
           A6          -0.00793  -0.00793   0.01297   0.09012  -0.00664
           A7           0.00395   0.00395   0.03989   0.00104   0.00166
           D1           0.01251   0.01251   0.00595  -0.00381   0.01632
           D2          -0.01251  -0.01251  -0.00595   0.00381  -0.01632
           D3           0.00000   0.00000   0.00000   0.00000   0.00000
                          A1        A2        A3        A4        A5
           A1           0.14705
           A2          -0.02712   0.18055
           A3           0.01884   0.00400   0.15092
           A4          -0.02712   0.02055   0.00400   0.18055
           A5           0.01884   0.00400  -0.00908   0.00400   0.15092
           A6           0.01771  -0.00225  -0.01129  -0.00225  -0.01129
           A7          -0.01587   0.01847  -0.00052   0.01847  -0.00052
           D1          -0.00728  -0.01494   0.00672  -0.01494   0.00672
           D2           0.00728   0.01494  -0.00672   0.01494  -0.00672
           D3           0.00000   0.00000   0.00000   0.00000   0.00000
                          A6        A7        D1        D2        D3
           A6           0.25211
           A7           0.01784   0.17975
           D1           0.00191  -0.01061   0.01565
           D2          -0.00191   0.01061  -0.00993   0.01565
           D3           0.00000   0.00000   0.00000   0.00000   0.00573
 ITU=  0  1  1  1  1  1  0
     Eigenvalues ---    0.00573   0.03880   0.09734   0.11053   0.15841
     Eigenvalues ---    0.16000   0.21467   0.29634   0.41239   0.41308
     Eigenvalues ---    0.43393   0.50250
 En-DIIS/RFO-DIIS IScMMF=        0 using points:     7    6
 RFO step:  Lambda=-2.76275670D-06.
 DidBck=T Rises=F RFO-DIIS coefs:    0.63290    0.36710
 Iteration  1 RMS(Cart)=  0.00299947 RMS(Int)=  0.00000615
 Iteration  2 RMS(Cart)=  0.00000307 RMS(Int)=  0.00000503
 Iteration  3 RMS(Cart)=  0.00000000 RMS(Int)=  0.00000503
 ClnCor:  largest displacement from symmetrization is 1.16D-08 for atom     3.
 Variable       Old X    -DE/DX   Delta X   Delta X   Delta X     New X
                                 (Linear)    (Quad)   (Total)
    R1        1.93302  -0.00010  -0.00023  -0.00011  -0.00034   1.93269
    R2        1.93302  -0.00010  -0.00023  -0.00011  -0.00034   1.93269
    R3        2.72825  -0.00045  -0.00031  -0.00096  -0.00127   2.72699
    R4        3.84214  -0.00030   0.00207  -0.00223  -0.00016   3.84198
    R5        1.84625  -0.00008   0.00005  -0.00022  -0.00017   1.84608
    A1        1.90399   0.00013   0.00092   0.00088   0.00180   1.90580
    A2        1.89191   0.00004   0.00015   0.00030   0.00045   1.89236
    A3        2.18553   0.00000  -0.00015  -0.00057  -0.00071   2.18483
    A4        1.89191   0.00004   0.00015   0.00030   0.00045   1.89236
    A5        2.18553   0.00000  -0.00015  -0.00057  -0.00071   2.18483
    A6        1.10239  -0.00104  -0.00501   0.00078  -0.00423   1.09816
    A7        1.96651   0.00003   0.00026   0.00053   0.00079   1.96730
    D1       -1.03225  -0.00010  -0.00063  -0.00069  -0.00133  -1.03358
    D2        1.03225   0.00010   0.00063   0.00069   0.00133   1.03358
    D3        3.14159   0.00000   0.00000   0.00000   0.00000   3.14159
         Item               Value     Threshold  Converged?
 Maximum Force            0.001037     0.000450     NO 
 RMS     Force            0.000309     0.000300     NO 
 Maximum Displacement     0.007872     0.001800     NO 
 RMS     Displacement     0.003001     0.001200     NO 
 Predicted change in Energy=-2.809081D-06
 GradGradGradGradGradGradGradGradGradGradGradGradGradGradGradGradGradGrad

                          Input orientation:                          
 ---------------------------------------------------------------------
 Center     Atomic      Atomic             Coordinates (Angstroms)
 Number     Number       Type             X           Y           Z
 ---------------------------------------------------------------------
      1          1           0        1.032694   -0.833639   -0.033636
      2          7           0        0.524631   -0.000008    0.271184
      3          1           0        1.032712    0.833617   -0.033625
      4          8           0       -0.772648    0.000011   -0.360866
      5          1           0       -0.717127    0.000017   -1.336192
      6          3           0       -1.100261    0.000002    1.493136
 ---------------------------------------------------------------------
                    Distance matrix (angstroms):
                    1          2          3          4          5
     1  H    0.000000
     2  N    1.022734   0.000000
     3  H    1.667256   1.022734   0.000000
     4  O    2.015270   1.443059   2.015270   0.000000
     5  H    2.335274   2.031162   2.335274   0.976905   0.000000
     6  Li   2.752360   2.033087   2.752360   1.882725   2.855151
                    6
     6  Li   0.000000
 Stoichiometry    H3LiNO(1+)
 Framework group  CS[SG(HLiNO),X(H2)]
 Deg. of freedom     8
 Full point group                 CS      NOp   2
 Largest Abelian subgroup         CS      NOp   2
 Largest concise Abelian subgroup CS      NOp   2
                         Standard orientation:                         
 ---------------------------------------------------------------------
 Center     Atomic      Atomic             Coordinates (Angstroms)
 Number     Number       Type             X           Y           Z
 ---------------------------------------------------------------------
      1          1           0        0.893221    0.877631    0.833628
      2          7           0        0.335171    0.678563    0.000000
      3          1           0        0.893221    0.877631   -0.833628
      4          8           0        0.000000   -0.725033    0.000000
      5          1           0        0.788845   -1.301285    0.000000
      6          3           0       -1.640494    0.198781    0.000000
 ---------------------------------------------------------------------
 Rotational constants (GHZ):     26.1493667     20.9608828     12.4368200
 Standard basis: 6-31+G(d) (6D, 7F)
 There are    46 symmetry adapted cartesian basis functions of A'  symmetry.
 There are    17 symmetry adapted cartesian basis functions of A"  symmetry.
 There are    46 symmetry adapted basis functions of A'  symmetry.
 There are    17 symmetry adapted basis functions of A"  symmetry.
    63 basis functions,   108 primitive gaussians,    63 cartesian basis functions
    10 alpha electrons       10 beta electrons
       nuclear repulsion energy        52.8296436770 Hartrees.
 NAtoms=    6 NActive=    6 NUniq=    5 SFac= 1.44D+00 NAtFMM=   60 NAOKFM=F Big=F
 Integral buffers will be    262144 words long.
 Raffenetti 2 integral format.
 Two-electron integral symmetry is turned on.
 One-electron integrals computed using PRISM.
 NBasis=    63 RedAO= T EigKep=  1.59D-03  NBF=    46    17
 NBsUse=    63 1.00D-06 EigRej= -1.00D+00 NBFU=    46    17
 Initial guess from the checkpoint file:  "C:\Users\hp\Desktop\Chem402210676\Part1\Complex.Conf.M0001.chk"
 B after Tr=     0.000000    0.000000    0.000000
         Rot=    0.999999    0.000000    0.000000   -0.001047 Ang=  -0.12 deg.
 Initial guess orbital symmetries:
       Occupied  (A') (A') (A') (A') (A') (A') (A") (A') (A") (A')
       Virtual   (A') (A') (A') (A') (A') (A') (A') (A') (A') (A')
                 (A') (A') (A') (A') (A') (A') (A') (A') (A') (A')
                 (A') (A') (A') (A') (A') (A') (A') (A') (A') (A')
                 (A') (A') (A') (A') (A') (A') (A') (A') (A") (A")
                 (A") (A") (A") (A") (A") (A") (A") (A") (A") (A")
                 (A") (A") (A")
 Keep R1 ints in memory in symmetry-blocked form, NReq=3135044.
 Requested convergence on RMS density matrix=1.00D-08 within 128 cycles.
 Requested convergence on MAX density matrix=1.00D-06.
 Requested convergence on             energy=1.00D-06.
 No special actions if energy rises.
 SCF Done:  E(RB3LYP) =  -139.068347414     A.U. after    8 cycles
            NFock=  8  Conv=0.19D-08     -V/T= 2.0094
 Calling FoFJK, ICntrl=      2127 FMM=F ISym2X=1 I1Cent= 0 IOpClX= 0 NMat=1 NMatS=1 NMatT=0.
 ***** Axes restored to original set *****
 -------------------------------------------------------------------
 Center     Atomic                   Forces (Hartrees/Bohr)
 Number     Number              X              Y              Z
 -------------------------------------------------------------------
      1        1           0.000009467    0.000004355    0.000007362
      2        7          -0.000043771    0.000000001   -0.000018745
      3        1           0.000009467   -0.000004355    0.000007362
      4        8           0.000025011    0.000000000    0.000031853
      5        1           0.000011845    0.000000000   -0.000004497
      6        3          -0.000012020    0.000000000   -0.000023335
 -------------------------------------------------------------------
 Cartesian Forces:  Max     0.000043771 RMS     0.000016804

 GradGradGradGradGradGradGradGradGradGradGradGradGradGradGradGradGradGrad
 Berny optimization.
 Using GEDIIS/GDIIS optimizer.
 FormGI is forming the generalized inverse of G from B-inverse, IUseBI=4.
 Internal  Forces:  Max     0.000048951 RMS     0.000017006
 Search for a local minimum.
 Step number   8 out of a maximum of   25
 All quantities printed in internal units (Hartrees-Bohrs-Radians)
 Mixed Optimization -- En-DIIS/RFO-DIIS
 Swapping is turned off.
 Update second derivatives using D2CorX and points    1    2    3    4    5
                                                      6    7    8
 DE= -3.20D-06 DEPred=-2.81D-06 R= 1.14D+00
 TightC=F SS=  1.41D+00  RLast= 5.35D-03 DXNew= 8.4853D-01 1.6042D-02
 Trust test= 1.14D+00 RLast= 5.35D-03 DXMaxT set to 5.05D-01
 The second derivative matrix:
                          R1        R2        R3        R4        R5
           R1           0.41429
           R2           0.00121   0.41429
           R3          -0.00418  -0.00418   0.39620
           R4          -0.00856  -0.00856  -0.02879   0.09364
           R5           0.00423   0.00423  -0.00450  -0.00575   0.49981
           A1           0.00798   0.00798   0.00796   0.02039   0.00758
           A2           0.00454   0.00454   0.05237   0.00507   0.00009
           A3          -0.00725  -0.00725  -0.02590  -0.01109  -0.00441
           A4           0.00454   0.00454   0.05237   0.00507   0.00009
           A5          -0.00725  -0.00725  -0.02590  -0.01109  -0.00441
           A6          -0.00971  -0.00971   0.00710   0.09377  -0.00569
           A7           0.00342   0.00342   0.04226   0.00169   0.00278
           D1           0.01342   0.01342   0.00545  -0.00669   0.01647
           D2          -0.01342  -0.01342  -0.00545   0.00669  -0.01647
           D3           0.00000   0.00000   0.00000   0.00000   0.00000
                          A1        A2        A3        A4        A5
           A1           0.14906
           A2          -0.02731   0.18191
           A3           0.01816   0.00364   0.15115
           A4          -0.02731   0.02191   0.00364   0.18191
           A5           0.01816   0.00364  -0.00885   0.00364   0.15115
           A6           0.01702  -0.00096  -0.01006  -0.00096  -0.01006
           A7          -0.01606   0.01838  -0.00062   0.01838  -0.00062
           D1          -0.00873  -0.01493   0.00734  -0.01493   0.00734
           D2           0.00873   0.01493  -0.00734   0.01493  -0.00734
           D3           0.00000   0.00000   0.00000   0.00000   0.00000
                          A6        A7        D1        D2        D3
           A6           0.24367
           A7           0.01586   0.17837
           D1          -0.00114  -0.01061   0.01612
           D2           0.00114   0.01061  -0.01039   0.01612
           D3           0.00000   0.00000   0.00000   0.00000   0.00573
 ITU=  1  0  1  1  1  1  1  0
     Eigenvalues ---    0.00573   0.03931   0.10171   0.11030   0.15807
     Eigenvalues ---    0.16000   0.21328   0.29322   0.41308   0.41539
     Eigenvalues ---    0.42903   0.50149
 En-DIIS/RFO-DIIS IScMMF=        0 using points:     8    7    6
 RFO step:  Lambda= 0.00000000D+00.
 DidBck=F Rises=F RFO-DIIS coefs:    1.01024   -0.02408    0.01384
 Iteration  1 RMS(Cart)=  0.00016507 RMS(Int)=  0.00000011
 Iteration  2 RMS(Cart)=  0.00000001 RMS(Int)=  0.00000011
 ClnCor:  largest displacement from symmetrization is 3.02D-11 for atom     3.
 Variable       Old X    -DE/DX   Delta X   Delta X   Delta X     New X
                                 (Linear)    (Quad)   (Total)
    R1        1.93269   0.00000  -0.00001   0.00001   0.00000   1.93269
    R2        1.93269   0.00000  -0.00001   0.00001   0.00000   1.93269
    R3        2.72699  -0.00004  -0.00002  -0.00007  -0.00009   2.72689
    R4        3.84198  -0.00001   0.00008   0.00004   0.00012   3.84210
    R5        1.84608   0.00000   0.00000   0.00000   0.00000   1.84608
    A1        1.90580  -0.00001   0.00005  -0.00008  -0.00003   1.90577
    A2        1.89236   0.00001   0.00001   0.00005   0.00006   1.89242
    A3        2.18483   0.00001  -0.00001   0.00004   0.00002   2.18485
    A4        1.89236   0.00001   0.00001   0.00005   0.00006   1.89242
    A5        2.18483   0.00001  -0.00001   0.00004   0.00002   2.18485
    A6        1.09816  -0.00005  -0.00023   0.00000  -0.00023   1.09793
    A7        1.96730   0.00000   0.00002  -0.00001   0.00001   1.96730
    D1       -1.03358   0.00000  -0.00004   0.00002  -0.00002  -1.03360
    D2        1.03358   0.00000   0.00004  -0.00002   0.00002   1.03360
    D3        3.14159   0.00000   0.00000   0.00000   0.00000   3.14159
         Item               Value     Threshold  Converged?
 Maximum Force            0.000049     0.000450     YES
 RMS     Force            0.000017     0.000300     YES
 Maximum Displacement     0.000342     0.001800     YES
 RMS     Displacement     0.000165     0.001200     YES
 Predicted change in Energy=-8.165708D-09
 Optimization completed.
    -- Stationary point found.
                           ----------------------------
                           !   Optimized Parameters   !
                           ! (Angstroms and Degrees)  !
 --------------------------                            --------------------------
 ! Name  Definition              Value          Derivative Info.                !
 --------------------------------------------------------------------------------
 ! R1    R(1,2)                  1.0227         -DE/DX =    0.0                 !
 ! R2    R(2,3)                  1.0227         -DE/DX =    0.0                 !
 ! R3    R(2,4)                  1.4431         -DE/DX =    0.0                 !
 ! R4    R(2,6)                  2.0331         -DE/DX =    0.0                 !
 ! R5    R(4,5)                  0.9769         -DE/DX =    0.0                 !
 ! A1    A(1,2,3)              109.194          -DE/DX =    0.0                 !
 ! A2    A(1,2,4)              108.4245         -DE/DX =    0.0                 !
 ! A3    A(1,2,6)              125.1815         -DE/DX =    0.0                 !
 ! A4    A(3,2,4)              108.4245         -DE/DX =    0.0                 !
 ! A5    A(3,2,6)              125.1815         -DE/DX =    0.0                 !
 ! A6    A(4,2,6)               62.9198         -DE/DX =    0.0                 !
 ! A7    A(2,4,5)              112.7178         -DE/DX =    0.0                 !
 ! D1    D(1,2,4,5)            -59.2197         -DE/DX =    0.0                 !
 ! D2    D(3,2,4,5)             59.2197         -DE/DX =    0.0                 !
 ! D3    D(6,2,4,5)            180.0            -DE/DX =    0.0                 !
 --------------------------------------------------------------------------------
 GradGradGradGradGradGradGradGradGradGradGradGradGradGradGradGradGradGrad

                          Input orientation:                          
 ---------------------------------------------------------------------
 Center     Atomic      Atomic             Coordinates (Angstroms)
 Number     Number       Type             X           Y           Z
 ---------------------------------------------------------------------
      1          1           0        1.032694   -0.833639   -0.033636
      2          7           0        0.524631   -0.000008    0.271184
      3          1           0        1.032712    0.833617   -0.033625
      4          8           0       -0.772648    0.000011   -0.360866
      5          1           0       -0.717127    0.000017   -1.336192
      6          3           0       -1.100261    0.000002    1.493136
 ---------------------------------------------------------------------
                    Distance matrix (angstroms):
                    1          2          3          4          5
     1  H    0.000000
     2  N    1.022734   0.000000
     3  H    1.667256   1.022734   0.000000
     4  O    2.015270   1.443059   2.015270   0.000000
     5  H    2.335274   2.031162   2.335274   0.976905   0.000000
     6  Li   2.752360   2.033087   2.752360   1.882725   2.855151
                    6
     6  Li   0.000000
 Stoichiometry    H3LiNO(1+)
 Framework group  CS[SG(HLiNO),X(H2)]
 Deg. of freedom     8
 Full point group                 CS      NOp   2
 Largest Abelian subgroup         CS      NOp   2
 Largest concise Abelian subgroup CS      NOp   2
                         Standard orientation:                         
 ---------------------------------------------------------------------
 Center     Atomic      Atomic             Coordinates (Angstroms)
 Number     Number       Type             X           Y           Z
 ---------------------------------------------------------------------
      1          1           0        0.893221    0.877631    0.833628
      2          7           0        0.335171    0.678563    0.000000
      3          1           0        0.893221    0.877631   -0.833628
      4          8           0        0.000000   -0.725033    0.000000
      5          1           0        0.788845   -1.301285    0.000000
      6          3           0       -1.640494    0.198781    0.000000
 ---------------------------------------------------------------------
 Rotational constants (GHZ):     26.1493667     20.9608828     12.4368200

 **********************************************************************

            Population analysis using the SCF density.

 **********************************************************************

 Orbital symmetries:
       Occupied  (A') (A') (A') (A') (A') (A') (A") (A') (A") (A')
       Virtual   (A') (A') (A') (A") (A') (A") (A') (A') (A') (A')
                 (A") (A') (A') (A") (A') (A") (A') (A') (A') (A")
                 (A') (A') (A') (A') (A") (A") (A') (A') (A') (A')
                 (A') (A") (A") (A') (A') (A") (A') (A') (A') (A")
                 (A') (A') (A") (A') (A') (A') (A") (A') (A") (A')
                 (A') (A') (A')
 The electronic state is 1-A'.
 Alpha  occ. eigenvalues --  -19.42565 -14.61528  -2.23861  -1.29891  -1.03940
 Alpha  occ. eigenvalues --   -0.78893  -0.74008  -0.64902  -0.54154  -0.52271
 Alpha virt. eigenvalues --   -0.20168  -0.17631  -0.16311  -0.13821  -0.11027
 Alpha virt. eigenvalues --   -0.08902  -0.07444  -0.06597  -0.06343  -0.06034
 Alpha virt. eigenvalues --   -0.05392  -0.04730  -0.01939  -0.00028   0.02045
 Alpha virt. eigenvalues --    0.02464   0.02810   0.04786   0.05997   0.06478
 Alpha virt. eigenvalues --    0.09071   0.12721   0.17902   0.31382   0.32825
 Alpha virt. eigenvalues --    0.36535   0.45082   0.49752   0.61801   0.71931
 Alpha virt. eigenvalues --    0.73933   0.75207   0.77646   0.84743   0.94211
 Alpha virt. eigenvalues --    0.95641   1.02874   1.04042   1.17676   1.27945
 Alpha virt. eigenvalues --    1.41639   1.50223   1.59234   1.69186   1.70553
 Alpha virt. eigenvalues --    1.93575   2.03998   2.04518   2.22044   2.33964
 Alpha virt. eigenvalues --    2.63919   3.69274   3.89872
          Condensed to atoms (all electrons):
               1          2          3          4          5          6
     1  H    0.322835   0.305877  -0.027908  -0.037257  -0.002871  -0.004063
     2  N    0.305877   7.091601   0.305877  -0.005105  -0.026953   0.052815
     3  H   -0.027908   0.305877   0.322835  -0.037257  -0.002871  -0.004063
     4  O   -0.037257  -0.005105  -0.037257   8.172614   0.224410   0.108572
     5  H   -0.002871  -0.026953  -0.002871   0.224410   0.278238  -0.005194
     6  Li  -0.004063   0.052815  -0.004063   0.108572  -0.005194   2.123859
 Mulliken charges:
               1
     1  H    0.443388
     2  N   -0.724113
     3  H    0.443388
     4  O   -0.425977
     5  H    0.535241
     6  Li   0.728073
 Sum of Mulliken charges =   1.00000
 Mulliken charges with hydrogens summed into heavy atoms:
               1
     2  N    0.162664
     4  O    0.109263
     6  Li   0.728073
 Electronic spatial extent (au):  <R**2>=             98.0744
 Charge=              1.0000 electrons
 Dipole moment (field-independent basis, Debye):
    X=             -2.6712    Y=              0.7058    Z=              0.0000  Tot=              2.7629
 Quadrupole moment (field-independent basis, Debye-Ang):
   XX=              2.2649   YY=            -10.7998   ZZ=            -11.7100
   XY=             -1.5074   XZ=              0.0000   YZ=              0.0000
 Traceless Quadrupole moment (field-independent basis, Debye-Ang):
   XX=              9.0132   YY=             -4.0515   ZZ=             -4.9617
   XY=             -1.5074   XZ=              0.0000   YZ=              0.0000
 Octapole moment (field-independent basis, Debye-Ang**2):
  XXX=            -23.4418  YYY=             -4.8871  ZZZ=              0.0000  XYY=              4.1552
  XXY=              2.2541  XXZ=              0.0000  XZZ=              0.5117  YZZ=              2.0875
  YYZ=              0.0000  XYZ=              0.0000
 Hexadecapole moment (field-independent basis, Debye-Ang**3):
 XXXX=              7.2508 YYYY=            -47.9962 ZZZZ=            -14.0728 XXXY=             -8.4381
 XXXZ=              0.0000 YYYX=             -5.5209 YYYZ=              0.0000 ZZZX=              0.0000
 ZZZY=              0.0000 XXYY=             -9.8191 XXZZ=             -5.6330 YYZZ=            -10.7558
 XXYZ=              0.0000 YYXZ=              0.0000 ZZXY=              0.4911
 N-N= 5.282964367697D+01 E-N=-4.272311377569D+02  KE= 1.377718327575D+02
 Symmetry A'   KE= 1.302534095044D+02
 Symmetry A"   KE= 7.518423253131D+00
 1|1|UNPC-LAPTOP-VTVSON0E|FOpt|RB3LYP|6-31+G(d)|H3Li1N1O1(1+)|HP|30-Jun
 -2024|0||# opt freq b3lyp/6-31+g(d) geom=connectivity||M0001||1,1|H,1.
 0326937179,-0.8336390095,-0.0336361465|N,0.5246308036,-0.0000075774,0.
 271183739|H,1.0327119713,0.8336168513,-0.0336248748|O,-0.7726484116,0.
 0000108986,-0.3608661028|H,-0.717126792,0.0000168845,-1.3361923057|Li,
 -1.1002612772,0.0000019511,1.4931356958||Version=IA32W-G09RevD.01|Stat
 e=1-A'|HF=-139.0683474|RMSD=1.946e-009|RMSF=1.680e-005|Dipole=-0.45258
 84,-0.0000017,0.9882986|Quadrupole=-0.1972445,-3.6889133,3.8861577,-0.
 0000075,-4.5469124,-0.0000014|PG=CS [SG(H1Li1N1O1),X(H2)]||@


 NECESSARY EVIL: ONE WE LIKE TOO MUCH TO RELINQUISH.
 Job cpu time:       0 days  0 hours  0 minutes 47.0 seconds.
 File lengths (MBytes):  RWF=      5 Int=      0 D2E=      0 Chk=      1 Scr=      1
 Normal termination of Gaussian 09 at Sun Jun 30 10:49:49 2024.
 Link1:  Proceeding to internal job step number  2.
 ---------------------------------------------------------------------
 #N Geom=AllCheck Guess=TCheck SCRF=Check GenChk RB3LYP/6-31+G(d) Freq
 ---------------------------------------------------------------------
 1/10=4,29=7,30=1,38=1,40=1/1,3;
 2/12=2,40=1/2;
 3/5=1,6=6,7=11,11=2,14=-4,16=1,25=1,30=1,70=2,71=2,74=-5,116=1,140=1/1,2,3;
 4/5=101/1;
 5/5=2,98=1/2;
 8/6=4,10=90,11=11/1;
 11/6=1,8=1,9=11,15=111,16=1/1,2,10;
 10/6=1/2;
 6/7=2,8=2,9=2,10=2,18=1,28=1/1;
 7/8=1,10=1,25=1/1,2,3,16;
 1/10=4,30=1/3;
 99//99;
 Structure from the checkpoint file:  "C:\Users\hp\Desktop\Chem402210676\Part1\Complex.Conf.M0001.chk"
 -----
 M0001
 -----
 Charge =  1 Multiplicity = 1
 Redundant internal coordinates found in file.
 H,0,1.0326937179,-0.8336390095,-0.0336361465
 N,0,0.5246308036,-0.0000075774,0.271183739
 H,0,1.0327119713,0.8336168513,-0.0336248748
 O,0,-0.7726484116,0.0000108986,-0.3608661028
 H,0,-0.717126792,0.0000168845,-1.3361923057
 Li,0,-1.1002612772,0.0000019511,1.4931356958
 Recover connectivity data from disk.

 GradGradGradGradGradGradGradGradGradGradGradGradGradGradGradGradGradGrad
 Berny optimization.
 Initialization pass.
                           ----------------------------
                           !    Initial Parameters    !
                           ! (Angstroms and Degrees)  !
 --------------------------                            --------------------------
 ! Name  Definition              Value          Derivative Info.                !
 --------------------------------------------------------------------------------
 ! R1    R(1,2)                  1.0227         calculate D2E/DX2 analytically  !
 ! R2    R(2,3)                  1.0227         calculate D2E/DX2 analytically  !
 ! R3    R(2,4)                  1.4431         calculate D2E/DX2 analytically  !
 ! R4    R(2,6)                  2.0331         calculate D2E/DX2 analytically  !
 ! R5    R(4,5)                  0.9769         calculate D2E/DX2 analytically  !
 ! A1    A(1,2,3)              109.194          calculate D2E/DX2 analytically  !
 ! A2    A(1,2,4)              108.4245         calculate D2E/DX2 analytically  !
 ! A3    A(1,2,6)              125.1815         calculate D2E/DX2 analytically  !
 ! A4    A(3,2,4)              108.4245         calculate D2E/DX2 analytically  !
 ! A5    A(3,2,6)              125.1815         calculate D2E/DX2 analytically  !
 ! A6    A(4,2,6)               62.9198         calculate D2E/DX2 analytically  !
 ! A7    A(2,4,5)              112.7178         calculate D2E/DX2 analytically  !
 ! D1    D(1,2,4,5)            -59.2197         calculate D2E/DX2 analytically  !
 ! D2    D(3,2,4,5)             59.2197         calculate D2E/DX2 analytically  !
 ! D3    D(6,2,4,5)            180.0            calculate D2E/DX2 analytically  !
 --------------------------------------------------------------------------------
 Trust Radius=3.00D-01 FncErr=1.00D-07 GrdErr=1.00D-07
 Number of steps in this run=      2 maximum allowed number of steps=      2.
 GradGradGradGradGradGradGradGradGradGradGradGradGradGradGradGradGradGrad

                          Input orientation:                          
 ---------------------------------------------------------------------
 Center     Atomic      Atomic             Coordinates (Angstroms)
 Number     Number       Type             X           Y           Z
 ---------------------------------------------------------------------
      1          1           0        1.032694   -0.833639   -0.033636
      2          7           0        0.524631   -0.000008    0.271184
      3          1           0        1.032712    0.833617   -0.033625
      4          8           0       -0.772648    0.000011   -0.360866
      5          1           0       -0.717127    0.000017   -1.336192
      6          3           0       -1.100261    0.000002    1.493136
 ---------------------------------------------------------------------
                    Distance matrix (angstroms):
                    1          2          3          4          5
     1  H    0.000000
     2  N    1.022734   0.000000
     3  H    1.667256   1.022734   0.000000
     4  O    2.015270   1.443059   2.015270   0.000000
     5  H    2.335274   2.031162   2.335274   0.976905   0.000000
     6  Li   2.752360   2.033087   2.752360   1.882725   2.855151
                    6
     6  Li   0.000000
 Stoichiometry    H3LiNO(1+)
 Framework group  CS[SG(HLiNO),X(H2)]
 Deg. of freedom     8
 Full point group                 CS      NOp   2
 Largest Abelian subgroup         CS      NOp   2
 Largest concise Abelian subgroup CS      NOp   2
                         Standard orientation:                         
 ---------------------------------------------------------------------
 Center     Atomic      Atomic             Coordinates (Angstroms)
 Number     Number       Type             X           Y           Z
 ---------------------------------------------------------------------
      1          1           0        0.893221    0.877631    0.833628
      2          7           0        0.335171    0.678563    0.000000
      3          1           0        0.893221    0.877631   -0.833628
      4          8           0        0.000000   -0.725033    0.000000
      5          1           0        0.788845   -1.301285    0.000000
      6          3           0       -1.640494    0.198781    0.000000
 ---------------------------------------------------------------------
 Rotational constants (GHZ):     26.1493667     20.9608828     12.4368200
 Standard basis: 6-31+G(d) (6D, 7F)
 There are    46 symmetry adapted cartesian basis functions of A'  symmetry.
 There are    17 symmetry adapted cartesian basis functions of A"  symmetry.
 There are    46 symmetry adapted basis functions of A'  symmetry.
 There are    17 symmetry adapted basis functions of A"  symmetry.
    63 basis functions,   108 primitive gaussians,    63 cartesian basis functions
    10 alpha electrons       10 beta electrons
       nuclear repulsion energy        52.8296436770 Hartrees.
 NAtoms=    6 NActive=    6 NUniq=    5 SFac= 1.44D+00 NAtFMM=   60 NAOKFM=F Big=F
 Integral buffers will be    262144 words long.
 Raffenetti 2 integral format.
 Two-electron integral symmetry is turned on.
 One-electron integrals computed using PRISM.
 NBasis=    63 RedAO= T EigKep=  1.59D-03  NBF=    46    17
 NBsUse=    63 1.00D-06 EigRej= -1.00D+00 NBFU=    46    17
 Initial guess from the checkpoint file:  "C:\Users\hp\Desktop\Chem402210676\Part1\Complex.Conf.M0001.chk"
 B after Tr=     0.000000    0.000000    0.000000
         Rot=    1.000000    0.000000    0.000000    0.000000 Ang=   0.00 deg.
 Initial guess orbital symmetries:
       Occupied  (A') (A') (A') (A') (A') (A') (A") (A') (A") (A')
       Virtual   (A') (A') (A') (A") (A') (A") (A') (A') (A') (A')
                 (A") (A') (A') (A") (A') (A") (A') (A') (A') (A")
                 (A') (A') (A') (A') (A") (A") (A') (A') (A') (A')
                 (A') (A") (A") (A') (A') (A") (A') (A') (A') (A")
                 (A') (A') (A") (A') (A') (A') (A") (A') (A") (A')
                 (A') (A') (A')
 Keep R1 ints in memory in symmetry-blocked form, NReq=3135044.
 Requested convergence on RMS density matrix=1.00D-08 within 128 cycles.
 Requested convergence on MAX density matrix=1.00D-06.
 Requested convergence on             energy=1.00D-06.
 No special actions if energy rises.
 SCF Done:  E(RB3LYP) =  -139.068347414     A.U. after    1 cycles
            NFock=  1  Conv=0.35D-09     -V/T= 2.0094
 DoSCS=F DFT=T ScalE2(SS,OS)=  1.000000  1.000000
 Range of M.O.s used for correlation:     1    63
 NBasis=    63 NAE=    10 NBE=    10 NFC=     0 NFV=     0
 NROrb=     63 NOA=    10 NOB=    10 NVA=    53 NVB=    53

 **** Warning!!: The largest alpha MO coefficient is  0.14007356D+02

 Symmetrizing basis deriv contribution to polar:
 IMax=3 JMax=2 DiffMx= 0.00D+00
 G2DrvN: will do     7 centers at a time, making    1 passes.
 Calling FoFCou, ICntrl=  3107 FMM=F I1Cent=   0 AccDes= 0.00D+00.
 End of G2Drv F.D. properties file   721 does not exist.
 End of G2Drv F.D. properties file   722 does not exist.
 End of G2Drv F.D. properties file   788 does not exist.
          IDoAtm=111111
          Differentiating once with respect to electric field.
                with respect to dipole field.
          Differentiating once with respect to nuclear coordinates.
 Keep R1 ints in memory in symmetry-blocked form, NReq=3105315.
          There are    18 degrees of freedom in the 1st order CPHF.  IDoFFX=4 NUNeed=    18.
     18 vectors produced by pass  0 Test12= 2.94D-15 5.56D-09 XBig12= 9.68D+00 1.50D+00.
 AX will form    18 AO Fock derivatives at one time.
     18 vectors produced by pass  1 Test12= 2.94D-15 5.56D-09 XBig12= 6.59D-01 2.79D-01.
     18 vectors produced by pass  2 Test12= 2.94D-15 5.56D-09 XBig12= 2.29D-03 1.38D-02.
     18 vectors produced by pass  3 Test12= 2.94D-15 5.56D-09 XBig12= 3.67D-06 4.28D-04.
     18 vectors produced by pass  4 Test12= 2.94D-15 5.56D-09 XBig12= 3.21D-09 1.59D-05.
      6 vectors produced by pass  5 Test12= 2.94D-15 5.56D-09 XBig12= 2.00D-12 2.81D-07.
      1 vectors produced by pass  6 Test12= 2.94D-15 5.56D-09 XBig12= 1.28D-15 8.03D-09.
 InvSVY:  IOpt=1 It=  1 EMax= 4.44D-16
 Solved reduced A of dimension    97 with    18 vectors.
 Isotropic polarizability for W=    0.000000       15.73 Bohr**3.
 End of Minotr F.D. properties file   721 does not exist.
 End of Minotr F.D. properties file   722 does not exist.
 End of Minotr F.D. properties file   788 does not exist.

 **********************************************************************

            Population analysis using the SCF density.

 **********************************************************************

 Orbital symmetries:
       Occupied  (A') (A') (A') (A') (A') (A') (A") (A') (A") (A')
       Virtual   (A') (A') (A') (A") (A') (A") (A') (A') (A') (A')
                 (A") (A') (A') (A") (A') (A") (A') (A') (A') (A")
                 (A') (A') (A') (A') (A") (A") (A') (A') (A') (A')
                 (A') (A") (A") (A') (A') (A") (A') (A') (A') (A")
                 (A') (A') (A") (A') (A') (A') (A") (A') (A") (A')
                 (A') (A') (A')
 The electronic state is 1-A'.
 Alpha  occ. eigenvalues --  -19.42565 -14.61528  -2.23861  -1.29891  -1.03940
 Alpha  occ. eigenvalues --   -0.78893  -0.74008  -0.64902  -0.54154  -0.52271
 Alpha virt. eigenvalues --   -0.20168  -0.17631  -0.16311  -0.13821  -0.11027
 Alpha virt. eigenvalues --   -0.08902  -0.07444  -0.06597  -0.06343  -0.06034
 Alpha virt. eigenvalues --   -0.05392  -0.04730  -0.01939  -0.00028   0.02045
 Alpha virt. eigenvalues --    0.02464   0.02810   0.04786   0.05997   0.06478
 Alpha virt. eigenvalues --    0.09071   0.12721   0.17902   0.31382   0.32825
 Alpha virt. eigenvalues --    0.36535   0.45082   0.49752   0.61801   0.71931
 Alpha virt. eigenvalues --    0.73933   0.75207   0.77646   0.84743   0.94211
 Alpha virt. eigenvalues --    0.95641   1.02874   1.04042   1.17676   1.27945
 Alpha virt. eigenvalues --    1.41639   1.50223   1.59234   1.69186   1.70553
 Alpha virt. eigenvalues --    1.93575   2.03998   2.04518   2.22044   2.33964
 Alpha virt. eigenvalues --    2.63919   3.69274   3.89872
          Condensed to atoms (all electrons):
               1          2          3          4          5          6
     1  H    0.322835   0.305877  -0.027908  -0.037257  -0.002871  -0.004063
     2  N    0.305877   7.091601   0.305877  -0.005105  -0.026953   0.052815
     3  H   -0.027908   0.305877   0.322835  -0.037257  -0.002871  -0.004063
     4  O   -0.037257  -0.005105  -0.037257   8.172614   0.224410   0.108572
     5  H   -0.002871  -0.026953  -0.002871   0.224410   0.278238  -0.005194
     6  Li  -0.004063   0.052815  -0.004063   0.108572  -0.005194   2.123859
 Mulliken charges:
               1
     1  H    0.443388
     2  N   -0.724113
     3  H    0.443388
     4  O   -0.425977
     5  H    0.535241
     6  Li   0.728073
 Sum of Mulliken charges =   1.00000
 Mulliken charges with hydrogens summed into heavy atoms:
               1
     2  N    0.162664
     4  O    0.109263
     6  Li   0.728073
 APT charges:
               1
     1  H    0.199788
     2  N   -0.129638
     3  H    0.199788
     4  O   -0.492746
     5  H    0.321227
     6  Li   0.901580
 Sum of APT charges =   1.00000
 APT charges with hydrogens summed into heavy atoms:
               1
     2  N    0.269939
     4  O   -0.171519
     6  Li   0.901580
 Electronic spatial extent (au):  <R**2>=             98.0744
 Charge=              1.0000 electrons
 Dipole moment (field-independent basis, Debye):
    X=             -2.6712    Y=              0.7058    Z=              0.0000  Tot=              2.7629
 Quadrupole moment (field-independent basis, Debye-Ang):
   XX=              2.2649   YY=            -10.7998   ZZ=            -11.7100
   XY=             -1.5074   XZ=              0.0000   YZ=              0.0000
 Traceless Quadrupole moment (field-independent basis, Debye-Ang):
   XX=              9.0132   YY=             -4.0515   ZZ=             -4.9617
   XY=             -1.5074   XZ=              0.0000   YZ=              0.0000
 Octapole moment (field-independent basis, Debye-Ang**2):
  XXX=            -23.4418  YYY=             -4.8871  ZZZ=              0.0000  XYY=              4.1552
  XXY=              2.2541  XXZ=              0.0000  XZZ=              0.5117  YZZ=              2.0875
  YYZ=              0.0000  XYZ=              0.0000
 Hexadecapole moment (field-independent basis, Debye-Ang**3):
 XXXX=              7.2508 YYYY=            -47.9962 ZZZZ=            -14.0728 XXXY=             -8.4381
 XXXZ=              0.0000 YYYX=             -5.5209 YYYZ=              0.0000 ZZZX=              0.0000
 ZZZY=              0.0000 XXYY=             -9.8191 XXZZ=             -5.6330 YYZZ=            -10.7558
 XXYZ=              0.0000 YYXZ=              0.0000 ZZXY=              0.4911
 N-N= 5.282964367697D+01 E-N=-4.272311378069D+02  KE= 1.377718327659D+02
 Symmetry A'   KE= 1.302534095078D+02
 Symmetry A"   KE= 7.518423258101D+00
  Exact polarizability:  15.648   0.497  18.040   0.000   0.000  13.516
 Approx polarizability:  18.867   0.982  22.585   0.000   0.000  16.725
 Calling FoFJK, ICntrl=    100127 FMM=F ISym2X=1 I1Cent= 0 IOpClX= 0 NMat=1 NMatS=1 NMatT=0.
 Full mass-weighted force constant matrix:
 Low frequencies ---  -16.2906  -12.7310    0.0015    0.0016    0.0021   11.0280
 Low frequencies ---  268.0438  274.7763  506.3149
 Diagonal vibrational polarizability:
       16.1456996      35.2243432     110.6352400
 Harmonic frequencies (cm**-1), IR intensities (KM/Mole), Raman scattering
 activities (A**4/AMU), depolarization ratios for plane and unpolarized
 incident light, reduced masses (AMU), force constants (mDyne/A),
 and normal coordinates:
                      1                      2                      3
                     A"                     A'                     A'
 Frequencies --    268.0431               274.7756               506.3139
 Red. masses --      1.2257                 5.1863                 6.8091
 Frc consts  --      0.0519                 0.2307                 1.0284
 IR Inten    --    292.4174                95.1459               132.6641
  Atom  AN      X      Y      Z        X      Y      Z        X      Y      Z
     1   1     0.21  -0.04  -0.11     0.36  -0.15   0.00     0.18  -0.05  -0.01
     2   7     0.00   0.00   0.02     0.28   0.08   0.00     0.16  -0.06   0.00
     3   1    -0.21   0.04  -0.11     0.36  -0.15   0.00     0.18  -0.05   0.01
     4   8     0.00   0.00   0.10    -0.21   0.19   0.00     0.20  -0.01   0.00
     5   1     0.00   0.00  -0.93    -0.46  -0.14   0.00     0.25   0.04   0.00
     6   3     0.00   0.00  -0.10    -0.11  -0.54   0.00    -0.88   0.15   0.00
                      4                      5                      6
                     A"                     A'                     A'
 Frequencies --    579.7690               931.2660              1199.3223
 Red. masses --      1.1149                 7.5132                 1.1652
 Frc consts  --      0.2208                 3.8390                 0.9875
 IR Inten    --     12.5484                19.2925                86.1693
  Atom  AN      X      Y      Z        X      Y      Z        X      Y      Z
     1   1     0.57  -0.11  -0.29     0.46  -0.17  -0.08    -0.33   0.54   0.13
     2   7     0.00   0.00   0.07     0.04   0.52   0.00     0.09   0.01   0.00
     3   1    -0.57   0.11  -0.29     0.46  -0.17   0.08    -0.33   0.54  -0.13
     4   8     0.00   0.00  -0.02    -0.09  -0.43   0.00    -0.02  -0.06   0.00
     5   1     0.00   0.00   0.38     0.18  -0.08   0.00    -0.20  -0.33   0.00
     6   3     0.00   0.00  -0.07    -0.05   0.01   0.00    -0.01   0.00   0.00
                      7                      8                      9
                     A"                     A'                     A'
 Frequencies --   1313.7449              1325.9747              1685.8924
 Red. masses --      1.1065                 1.2136                 1.0723
 Frc consts  --      1.1252                 1.2572                 1.7957
 IR Inten    --      0.1750                40.6337                43.1286
  Atom  AN      X      Y      Z        X      Y      Z        X      Y      Z
     1   1     0.04   0.69  -0.09     0.14  -0.10  -0.10    -0.42  -0.41   0.38
     2   7     0.00   0.00   0.07    -0.08   0.03   0.00     0.04   0.05   0.00
     3   1    -0.04  -0.69  -0.09     0.14  -0.10   0.10    -0.42  -0.41  -0.38
     4   8     0.00   0.00  -0.05     0.08   0.03   0.00     0.02   0.01   0.00
     5   1     0.00   0.00  -0.09    -0.51  -0.81   0.00    -0.04  -0.08   0.00
     6   3     0.00   0.00   0.00     0.00   0.01   0.00     0.00   0.00   0.00
                     10                     11                     12
                     A'                     A"                     A'
 Frequencies --   3444.1290              3543.9805              3671.2985
 Red. masses --      1.0471                 1.1006                 1.0696
 Frc consts  --      7.3179                 8.1444                 8.4937
 IR Inten    --     15.9000                46.3706               126.7795
  Atom  AN      X      Y      Z        X      Y      Z        X      Y      Z
     1   1     0.36   0.13   0.60     0.39   0.12   0.58     0.01   0.00   0.01
     2   7    -0.05  -0.02   0.00     0.00   0.00  -0.08     0.00   0.00   0.00
     3   1     0.36   0.13  -0.60    -0.39  -0.12   0.58     0.01   0.00  -0.01
     4   8     0.00   0.00   0.00     0.00   0.00   0.00    -0.05   0.04   0.00
     5   1    -0.02   0.01   0.00     0.00   0.00   0.00     0.82  -0.58   0.00
     6   3     0.00   0.00   0.00     0.00   0.00   0.00     0.00   0.00   0.00

 -------------------
 - Thermochemistry -
 -------------------
 Temperature   298.150 Kelvin.  Pressure   1.00000 Atm.
 Atom     1 has atomic number  1 and mass   1.00783
 Atom     2 has atomic number  7 and mass  14.00307
 Atom     3 has atomic number  1 and mass   1.00783
 Atom     4 has atomic number  8 and mass  15.99491
 Atom     5 has atomic number  1 and mass   1.00783
 Atom     6 has atomic number  3 and mass   7.01600
 Molecular mass:    40.03747 amu.
 Principal axes and moments of inertia in atomic units:
                           1         2         3
     Eigenvalues --    69.01663  86.10044 145.11275
           X            0.95018  -0.31169   0.00000
           Y            0.31169   0.95018   0.00000
           Z            0.00000   0.00000   1.00000
 This molecule is an asymmetric top.
 Rotational symmetry number  1.
 Rotational temperatures (Kelvin)      1.25497     1.00596     0.59687
 Rotational constants (GHZ):          26.14937    20.96088    12.43682
 Zero-point vibrational energy     112117.1 (Joules/Mol)
                                   26.79662 (Kcal/Mol)
 Warning -- explicit consideration of   4 degrees of freedom as
           vibrations may cause significant error
 Vibrational temperatures:    385.65   395.34   728.47   834.16  1339.88
          (Kelvin)           1725.56  1890.18  1907.78  2425.62  4955.33
                             5098.99  5282.17
 
 Zero-point correction=                           0.042703 (Hartree/Particle)
 Thermal correction to Energy=                    0.046929
 Thermal correction to Enthalpy=                  0.047873
 Thermal correction to Gibbs Free Energy=         0.017989
 Sum of electronic and zero-point Energies=           -139.025644
 Sum of electronic and thermal Energies=              -139.021419
 Sum of electronic and thermal Enthalpies=            -139.020475
 Sum of electronic and thermal Free Energies=         -139.050358
 
                     E (Thermal)             CV                S
                      KCal/Mol        Cal/Mol-Kelvin    Cal/Mol-Kelvin
 Total                   29.448             12.704             62.896
 Electronic               0.000              0.000              0.000
 Translational            0.889              2.981             36.990
 Rotational               0.889              2.981             21.383
 Vibrational             27.671              6.743              4.523
 Vibration     1          0.673              1.732              1.609
 Vibration     2          0.677              1.720              1.566
 Vibration     3          0.862              1.236              0.643
 Vibration     4          0.936              1.075              0.486
                       Q            Log10(Q)             Ln(Q)
 Total Bot       0.531729D-08         -8.274309        -19.052301
 Total V=0       0.233200D+12         11.367728         26.175160
 Vib (Bot)       0.507992D-19        -19.294143        -44.426407
 Vib (Bot)    1  0.721726D+00         -0.141627         -0.326109
 Vib (Bot)    2  0.701619D+00         -0.153899         -0.354365
 Vib (Bot)    3  0.322784D+00         -0.491088         -1.130773
 Vib (Bot)    4  0.262893D+00         -0.580220         -1.336007
 Vib (V=0)       0.222789D+01          0.347894          0.801055
 Vib (V=0)    1  0.137800D+01          0.139250          0.320635
 Vib (V=0)    2  0.136155D+01          0.134034          0.308624
 Vib (V=0)    3  0.109514D+01          0.039469          0.090880
 Vib (V=0)    4  0.106490D+01          0.027309          0.062882
 Electronic      0.100000D+01          0.000000          0.000000
 Translational   0.995761D+07          6.998155         16.113848
 Rotational      0.105118D+05          4.021679          9.260258
 ***** Axes restored to original set *****
 -------------------------------------------------------------------
 Center     Atomic                   Forces (Hartrees/Bohr)
 Number     Number              X              Y              Z
 -------------------------------------------------------------------
      1        1           0.000009465    0.000004356    0.000007362
      2        7          -0.000043762    0.000000001   -0.000018741
      3        1           0.000009465   -0.000004356    0.000007362
      4        8           0.000025005    0.000000000    0.000031847
      5        1           0.000011845    0.000000000   -0.000004495
      6        3          -0.000012020    0.000000000   -0.000023336
 -------------------------------------------------------------------
 Cartesian Forces:  Max     0.000043762 RMS     0.000016801
 FormGI is forming the generalized inverse of G from B-inverse, IUseBI=4.

 GradGradGradGradGradGradGradGradGradGradGradGradGradGradGradGradGradGrad
 Berny optimization.
 Internal  Forces:  Max     0.000048951 RMS     0.000017005
 Search for a local minimum.
 Step number   1 out of a maximum of    2
 All quantities printed in internal units (Hartrees-Bohrs-Radians)
 Second derivative matrix not updated -- analytic derivatives used.
 The second derivative matrix:
                          R1        R2        R3        R4        R5
           R1           0.43475
           R2          -0.00128   0.43475
           R3           0.00113   0.00113   0.30543
           R4           0.00123   0.00123   0.00761   0.04952
           R5           0.00073   0.00073   0.00019  -0.00057   0.48278
           A1           0.01029   0.01029  -0.01607  -0.00295   0.00099
           A2          -0.00472   0.00498   0.05585   0.00172  -0.00358
           A3          -0.00421  -0.00640  -0.00198  -0.00361   0.00026
           A4           0.00498  -0.00472   0.05585   0.00172  -0.00358
           A5          -0.00640  -0.00421  -0.00198  -0.00361   0.00026
           A6          -0.00228  -0.00228   0.03282   0.06661  -0.00357
           A7          -0.00211  -0.00211   0.04830   0.00245  -0.00722
           D1          -0.00480  -0.00762  -0.02165   0.00080   0.00141
           D2           0.00762   0.00480   0.02165  -0.00080  -0.00141
           D3          -0.00174   0.00174   0.00000   0.00000   0.00000
                          A1        A2        A3        A4        A5
           A1           0.04727
           A2          -0.03635   0.19300
           A3          -0.01944   0.01130   0.01852
           A4          -0.03635  -0.01605   0.00218   0.19300
           A5          -0.01944   0.00218   0.00221   0.01130   0.01852
           A6          -0.00476  -0.00345  -0.01403  -0.00345  -0.01403
           A7           0.00263   0.00412  -0.00352   0.00412  -0.00352
           D1          -0.00787  -0.04405   0.01100  -0.01154   0.00466
           D2           0.00787   0.01154  -0.00466   0.04405  -0.01100
           D3           0.00000   0.02007  -0.00420  -0.02007   0.00420
                          A6        A7        D1        D2        D3
           A6           0.23085
           A7           0.02071   0.19930
           D1           0.00477  -0.00387   0.02570
           D2          -0.00477   0.00387  -0.01478   0.02570
           D3           0.00000   0.00000  -0.00456  -0.00456   0.00814
 ITU=  0
     Eigenvalues ---    0.00306   0.02282   0.02741   0.07028   0.14919
     Eigenvalues ---    0.19056   0.21803   0.25519   0.37603   0.43486
     Eigenvalues ---    0.43653   0.48326
 Angle between quadratic step and forces=  38.84 degrees.
 Linear search not attempted -- first point.
 Iteration  1 RMS(Cart)=  0.00018023 RMS(Int)=  0.00000001
 Iteration  2 RMS(Cart)=  0.00000001 RMS(Int)=  0.00000000
 ClnCor:  largest displacement from symmetrization is 5.36D-11 for atom     4.
 Variable       Old X    -DE/DX   Delta X   Delta X   Delta X     New X
                                 (Linear)    (Quad)   (Total)
    R1        1.93269   0.00000   0.00000   0.00000   0.00000   1.93269
    R2        1.93269   0.00000   0.00000   0.00000   0.00000   1.93269
    R3        2.72699  -0.00004   0.00000  -0.00014  -0.00014   2.72684
    R4        3.84198  -0.00001   0.00000   0.00017   0.00017   3.84215
    R5        1.84608   0.00000   0.00000   0.00000   0.00000   1.84608
    A1        1.90580  -0.00001   0.00000  -0.00007  -0.00007   1.90572
    A2        1.89236   0.00001   0.00000   0.00008   0.00008   1.89244
    A3        2.18483   0.00001   0.00000   0.00004   0.00004   2.18487
    A4        1.89236   0.00001   0.00000   0.00008   0.00008   1.89244
    A5        2.18483   0.00001   0.00000   0.00004   0.00004   2.18487
    A6        1.09816  -0.00005   0.00000  -0.00024  -0.00024   1.09792
    A7        1.96730   0.00000   0.00000   0.00004   0.00004   1.96733
    D1       -1.03358   0.00000   0.00000   0.00000   0.00000  -1.03358
    D2        1.03358   0.00000   0.00000   0.00000   0.00000   1.03358
    D3        3.14159   0.00000   0.00000   0.00000   0.00000   3.14159
         Item               Value     Threshold  Converged?
 Maximum Force            0.000049     0.000450     YES
 RMS     Force            0.000017     0.000300     YES
 Maximum Displacement     0.000334     0.001800     YES
 RMS     Displacement     0.000180     0.001200     YES
 Predicted change in Energy=-9.171150D-09
 Optimization completed.
    -- Stationary point found.
                           ----------------------------
                           !   Optimized Parameters   !
                           ! (Angstroms and Degrees)  !
 --------------------------                            --------------------------
 ! Name  Definition              Value          Derivative Info.                !
 --------------------------------------------------------------------------------
 ! R1    R(1,2)                  1.0227         -DE/DX =    0.0                 !
 ! R2    R(2,3)                  1.0227         -DE/DX =    0.0                 !
 ! R3    R(2,4)                  1.4431         -DE/DX =    0.0                 !
 ! R4    R(2,6)                  2.0331         -DE/DX =    0.0                 !
 ! R5    R(4,5)                  0.9769         -DE/DX =    0.0                 !
 ! A1    A(1,2,3)              109.194          -DE/DX =    0.0                 !
 ! A2    A(1,2,4)              108.4245         -DE/DX =    0.0                 !
 ! A3    A(1,2,6)              125.1815         -DE/DX =    0.0                 !
 ! A4    A(3,2,4)              108.4245         -DE/DX =    0.0                 !
 ! A5    A(3,2,6)              125.1815         -DE/DX =    0.0                 !
 ! A6    A(4,2,6)               62.9198         -DE/DX =    0.0                 !
 ! A7    A(2,4,5)              112.7178         -DE/DX =    0.0                 !
 ! D1    D(1,2,4,5)            -59.2197         -DE/DX =    0.0                 !
 ! D2    D(3,2,4,5)             59.2197         -DE/DX =    0.0                 !
 ! D3    D(6,2,4,5)            180.0            -DE/DX =    0.0                 !
 --------------------------------------------------------------------------------
 GradGradGradGradGradGradGradGradGradGradGradGradGradGradGradGradGradGrad

 1|1|UNPC-LAPTOP-VTVSON0E|Freq|RB3LYP|6-31+G(d)|H3Li1N1O1(1+)|HP|30-Jun
 -2024|0||#N Geom=AllCheck Guess=TCheck SCRF=Check GenChk RB3LYP/6-31+G
 (d) Freq||M0001||1,1|H,1.0326937179,-0.8336390095,-0.0336361465|N,0.52
 46308036,-0.0000075774,0.271183739|H,1.0327119713,0.8336168513,-0.0336
 248748|O,-0.7726484116,0.0000108986,-0.3608661028|H,-0.717126792,0.000
 0168845,-1.3361923057|Li,-1.1002612772,0.0000019511,1.4931356958||Vers
 ion=IA32W-G09RevD.01|State=1-A'|HF=-139.0683474|RMSD=3.495e-010|RMSF=1
 .680e-005|ZeroPoint=0.0427031|Thermal=0.0469286|Dipole=-0.4525883,-0.0
 000017,0.9882986|DipoleDeriv=0.1414392,-0.0032083,-0.0363276,-0.011433
 5,0.2186459,-0.0480297,0.0072683,-0.0903446,0.2392791,0.0256955,-0.000
 0034,0.1785045,-0.0000047,-0.1700444,-0.0000014,0.3806965,-0.0000037,-
 0.2445637,0.1414395,0.0032105,-0.0363266,0.0114351,0.2186437,0.0480302
 ,0.0072704,0.0903441,0.239281,-0.4094923,-0.0000009,-0.0013582,0.00000
 1,-0.4972009,0.0000005,-0.290266,0.0000037,-0.5715444,0.2129987,0.0000
 023,-0.0071203,0.0000021,0.4177435,0.0000006,0.0251126,0.0000003,0.332
 9394,0.8879194,-0.0000002,-0.0973718,0.,0.8122121,-0.0000002,-0.130081
 8,0.0000001,1.0046087|Polar=17.5642671,-0.0000516,13.5155232,1.0768228
 ,-0.0000294,16.1245967|PG=CS [SG(H1Li1N1O1),X(H2)]|NImag=0||0.15366695
 ,-0.14451563,0.31801905,-0.04651730,0.09962185,0.07125717,-0.13558175,
 0.13291076,0.07644564,0.48313399,0.13686903,-0.30623922,-0.13314871,0.
 00000250,0.67558983,0.04384083,-0.08594982,-0.07416410,-0.05814399,0.0
 0000350,0.25154753,0.01443310,0.01791767,-0.00485586,-0.13558766,-0.13
 687336,0.04384086,0.15367328,-0.01791842,-0.02278300,0.01441672,-0.132
 91553,-0.30623628,0.08594572,0.14451986,0.31801542,-0.00485642,-0.0144
 1694,0.00110353,0.07644676,0.13314389,-0.07416114,-0.04651753,-0.09961
 749,0.07125447,-0.03162535,-0.00679140,-0.02237059,-0.19036737,0.00000
 150,-0.00466174,-0.03162570,0.00679261,-0.02237092,0.30965525,0.022585
 95,0.00978370,0.01896760,0.00000219,-0.05662544,0.00000027,-0.02258514
 ,0.00978431,-0.01896698,-0.00000304,0.03957805,0.00684526,0.00075819,-
 0.00016934,-0.10788680,0.00000140,-0.08909287,0.00684493,-0.00075821,-
 0.00016961,0.01184375,-0.00000396,0.60681037,0.00115853,0.00028196,-0.
 00280722,-0.00644397,0.00000032,-0.04080239,0.00115849,-0.00028194,-0.
 00280731,-0.05538493,0.00000007,0.07759020,0.06027822,0.00147537,0.000
 12076,0.00423422,0.00000007,-0.00259721,0.00000046,-0.00147540,0.00012
 087,-0.00423418,0.00000040,-0.00087002,0.00000239,-0.00000043,0.004055
 87,0.00114305,0.00094083,0.00155554,-0.00380874,0.00000006,-0.00483690
 ,0.00114301,-0.00094088,0.00155547,0.02939817,0.00000292,-0.48013254,-
 0.02796273,-0.00000292,0.48096318,-0.00205147,0.00019664,0.00010532,-0
 .01515323,0.00000002,0.01592643,-0.00205151,-0.00019657,0.00010541,-0.
 00065190,-0.00000004,0.00476266,-0.00076634,0.,0.00008724,0.02067444,0
 .00150370,0.00109871,-0.00409169,0.,-0.00389167,-0.00000014,-0.0015036
 3,0.00109868,0.00409170,-0.00000007,-0.00165059,0.00000019,0.00000002,
 -0.00083027,-0.00000001,-0.00000004,0.00417514,-0.00045542,-0.00095412
 ,0.00041720,0.01694712,-0.00000015,-0.00929252,-0.00045542,0.00095413,
 0.00041727,0.00816133,0.00000015,-0.03724601,-0.00321055,0.00000002,0.
 00089524,-0.02098706,-0.00000004,0.04480883||-0.00000947,-0.00000436,-
 0.00000736,0.00004376,0.,0.00001874,-0.00000947,0.00000436,-0.00000736
 ,-0.00002501,0.,-0.00003185,-0.00001185,0.,0.00000450,0.00001202,0.,0.
 00002334|||@


 NECESSARY EVIL: ONE WE LIKE TOO MUCH TO RELINQUISH.
 Job cpu time:       0 days  0 hours  0 minutes 22.0 seconds.
 File lengths (MBytes):  RWF=      5 Int=      0 D2E=      0 Chk=      1 Scr=      1
 Normal termination of Gaussian 09 at Sun Jun 30 10:50:11 2024.
