%chk=C:\Users\hp\Desktop\Chem402210676\Part1\ComplexAq.Conf.M0001.chk
# freq b3lyp/6-31+g(d) scrf=(cpcm,solvent=water) geom=connectivity

M0001

1 1
 H                  0.93868913   -0.81008621   -0.04737756
 N                  0.40515547   -0.00000665    0.32748787
 H                  0.93870686    0.81006630   -0.04736661
 O                 -0.81162703    0.00001206   -0.46955675
 H                 -0.53555109    0.00001546   -1.41987614
 Li                -0.93537334   -0.00000096    1.65668919

 1 2 1.0
 2 3 1.0 4 1.0
 3
 4 5 1.0
 5
 6

