 Entering Link 1 = C:\G09W\l1.exe PID=      9412.
  
 Copyright (c) 1988,1990,1992,1993,1995,1998,2003,2009,2013,
            Gaussian, Inc.  All Rights Reserved.
  
 This is part of the Gaussian(R) 09 program.  It is based on
 the Gaussian(R) 03 system (copyright 2003, Gaussian, Inc.),
 the Gaussian(R) 98 system (copyright 1998, Gaussian, Inc.),
 the Gaussian(R) 94 system (copyright 1995, Gaussian, Inc.),
 the Gaussian 92(TM) system (copyright 1992, Gaussian, Inc.),
 the Gaussian 90(TM) system (copyright 1990, Gaussian, Inc.),
 the Gaussian 88(TM) system (copyright 1988, Gaussian, Inc.),
 the Gaussian 86(TM) system (copyright 1986, Carnegie Mellon
 University), and the Gaussian 82(TM) system (copyright 1983,
 Carnegie Mellon University). Gaussian is a federally registered
 trademark of Gaussian, Inc.
  
 This software contains proprietary and confidential information,
 including trade secrets, belonging to Gaussian, Inc.
  
 This software is provided under written license and may be
 used, copied, transmitted, or stored only in accord with that
 written license.
  
 The following legend is applicable only to US Government
 contracts under FAR:
  
                    RESTRICTED RIGHTS LEGEND
  
 Use, reproduction and disclosure by the US Government is
 subject to restrictions as set forth in subparagraphs (a)
 and (c) of the Commercial Computer Software - Restricted
 Rights clause in FAR 52.227-19.
  
 Gaussian, Inc.
 340 Quinnipiac St., Bldg. 40, Wallingford CT 06492
  
  
 ---------------------------------------------------------------
 Warning -- This program may not be used in any manner that
 competes with the business of Gaussian, Inc. or will provide
 assistance to any competitor of Gaussian, Inc.  The licensee
 of this program is prohibited from giving any competitor of
 Gaussian, Inc. access to this program.  By using this program,
 the user acknowledges that Gaussian, Inc. is engaged in the
 business of creating and licensing software in the field of
 computational chemistry and represents and warrants to the
 licensee that it is not a competitor of Gaussian, Inc. and that
 it will not use this program in any manner prohibited above.
 ---------------------------------------------------------------
  

 Cite this work as:
 Gaussian 09, Revision D.01,
 M. J. Frisch, G. W. Trucks, H. B. Schlegel, G. E. Scuseria, 
 M. A. Robb, J. R. Cheeseman, G. Scalmani, V. Barone, B. Mennucci, 
 G. A. Petersson, H. Nakatsuji, M. Caricato, X. Li, H. P. Hratchian, 
 A. F. Izmaylov, J. Bloino, G. Zheng, J. L. Sonnenberg, M. Hada, 
 M. Ehara, K. Toyota, R. Fukuda, J. Hasegawa, M. Ishida, T. Nakajima, 
 Y. Honda, O. Kitao, H. Nakai, T. Vreven, J. A. Montgomery, Jr., 
 J. E. Peralta, F. Ogliaro, M. Bearpark, J. J. Heyd, E. Brothers, 
 K. N. Kudin, V. N. Staroverov, T. Keith, R. Kobayashi, J. Normand, 
 K. Raghavachari, A. Rendell, J. C. Burant, S. S. Iyengar, J. Tomasi, 
 M. Cossi, N. Rega, J. M. Millam, M. Klene, J. E. Knox, J. B. Cross, 
 V. Bakken, C. Adamo, J. Jaramillo, R. Gomperts, R. E. Stratmann, 
 O. Yazyev, A. J. Austin, R. Cammi, C. Pomelli, J. W. Ochterski, 
 R. L. Martin, K. Morokuma, V. G. Zakrzewski, G. A. Voth, 
 P. Salvador, J. J. Dannenberg, S. Dapprich, A. D. Daniels, 
 O. Farkas, J. B. Foresman, J. V. Ortiz, J. Cioslowski, 
 and D. J. Fox, Gaussian, Inc., Wallingford CT, 2013.
 
 ******************************************
 Gaussian 09:  IA32W-G09RevD.01 24-Apr-2013
                30-Jun-2024 
 ******************************************
 %chk=C:\Users\hp\Desktop\ChemProj-402210676\hydroxylamine.Conf.M0001_1.chk
 -----------------------------------------
 # opt freq hf/6-31+g(d) geom=connectivity
 -----------------------------------------
 1/18=20,19=15,38=1,57=2/1,3;
 2/9=110,12=2,17=6,18=5,40=1/2;
 3/5=1,6=6,7=11,11=9,16=1,25=1,30=1,71=1/1,2,3;
 4//1;
 5/5=2,38=5/2;
 6/7=2,8=2,9=2,10=2,28=1/1;
 7//1,2,3,16;
 1/18=20,19=15/3(2);
 2/9=110/2;
 99//99;
 2/9=110/2;
 3/5=1,6=6,7=11,11=9,16=1,25=1,30=1,71=1/1,2,3;
 4/5=5,16=3,69=1/1;
 5/5=2,38=5/2;
 7//1,2,3,16;
 1/18=20,19=15/3(-5);
 2/9=110/2;
 6/7=2,8=2,9=2,10=2,19=2,28=1/1;
 99/9=1/99;
 -----
 M0001
 -----
 Symbolic Z-matrix:
 Charge =  0 Multiplicity = 1
 H                    -1.0233    0.36648   0.81541 
 N                    -0.69728  -0.15902   0. 
 H                    -1.0233    0.36648  -0.81541 
 O                     0.72509   0.14141   0. 
 H                     1.12681  -0.75115   0. 
 

 GradGradGradGradGradGradGradGradGradGradGradGradGradGradGradGradGradGrad
 Berny optimization.
 Initialization pass.
                           ----------------------------
                           !    Initial Parameters    !
                           ! (Angstroms and Degrees)  !
 --------------------------                            --------------------------
 ! Name  Definition              Value          Derivative Info.                !
 --------------------------------------------------------------------------------
 ! R1    R(1,2)                  1.0234         estimate D2E/DX2                !
 ! R2    R(2,3)                  1.0234         estimate D2E/DX2                !
 ! R3    R(2,4)                  1.4537         estimate D2E/DX2                !
 ! R4    R(4,5)                  0.9788         estimate D2E/DX2                !
 ! A1    A(1,2,3)              105.6455         estimate D2E/DX2                !
 ! A2    A(1,2,4)              101.8636         estimate D2E/DX2                !
 ! A3    A(3,2,4)              101.8636         estimate D2E/DX2                !
 ! A4    A(2,4,5)              102.3044         estimate D2E/DX2                !
 ! D1    D(1,2,3,4)            106.0803         estimate D2E/DX2                !
 ! D2    D(1,2,4,5)            125.4956         estimate D2E/DX2                !
 ! D3    D(3,2,4,5)           -125.4956         estimate D2E/DX2                !
 --------------------------------------------------------------------------------
 Trust Radius=3.00D-01 FncErr=1.00D-07 GrdErr=1.00D-07
 Number of steps in this run=     21 maximum allowed number of steps=    100.
 GradGradGradGradGradGradGradGradGradGradGradGradGradGradGradGradGradGrad

                          Input orientation:                          
 ---------------------------------------------------------------------
 Center     Atomic      Atomic             Coordinates (Angstroms)
 Number     Number       Type             X           Y           Z
 ---------------------------------------------------------------------
      1          1           0       -1.023304    0.366482    0.815409
      2          7           0       -0.697275   -0.159016    0.000000
      3          1           0       -1.023304    0.366482   -0.815409
      4          8           0        0.725091    0.141413    0.000000
      5          1           0        1.126806   -0.751151    0.000000
 ---------------------------------------------------------------------
                    Distance matrix (angstroms):
                    1          2          3          4          5
     1  H    0.000000
     2  N    1.023394   0.000000
     3  H    1.630819   1.023394   0.000000
     4  O    1.942275   1.453748   1.942275   0.000000
     5  H    2.556750   1.917785   2.556750   0.978798   0.000000
 Stoichiometry    H3NO
 Framework group  CS[SG(HNO),X(H2)]
 Deg. of freedom     6
 Full point group                 CS      NOp   2
 Largest Abelian subgroup         CS      NOp   2
 Largest concise Abelian subgroup CS      NOp   2
                         Standard orientation:                         
 ---------------------------------------------------------------------
 Center     Atomic      Atomic             Coordinates (Angstroms)
 Number     Number       Type             X           Y           Z
 ---------------------------------------------------------------------
      1          1           0        0.570045    0.925477    0.815409
      2          7           0       -0.011486    0.715085    0.000000
      3          1           0        0.570045    0.925477   -0.815409
      4          8           0       -0.011486   -0.738663    0.000000
      5          1           0       -0.967800   -0.947251    0.000000
 ---------------------------------------------------------------------
 Rotational constants (GHZ):    186.6333242     25.1822487     25.1478021
 Standard basis: 6-31+G(d) (6D, 7F)
 There are    32 symmetry adapted cartesian basis functions of A'  symmetry.
 There are    12 symmetry adapted cartesian basis functions of A"  symmetry.
 There are    32 symmetry adapted basis functions of A'  symmetry.
 There are    12 symmetry adapted basis functions of A"  symmetry.
    44 basis functions,    76 primitive gaussians,    44 cartesian basis functions
     9 alpha electrons        9 beta electrons
       nuclear repulsion energy        38.9779307065 Hartrees.
 NAtoms=    5 NActive=    5 NUniq=    4 SFac= 1.56D+00 NAtFMM=   60 NAOKFM=F Big=F
 Integral buffers will be    262144 words long.
 Raffenetti 1 integral format.
 Two-electron integral symmetry is turned on.
 One-electron integrals computed using PRISM.
 NBasis=    44 RedAO= T EigKep=  3.63D-03  NBF=    32    12
 NBsUse=    44 1.00D-06 EigRej= -1.00D+00 NBFU=    32    12
 ExpMin= 6.39D-02 ExpMax= 5.48D+03 ExpMxC= 8.25D+02 IAcc=2 IRadAn=         4 AccDes= 0.00D+00
 Harris functional with IExCor=  205 and IRadAn=       4 diagonalized for initial guess.
 HarFok:  IExCor=  205 AccDes= 0.00D+00 IRadAn=         4 IDoV= 1 UseB2=F ITyADJ=14
 ICtDFT=  3500011 ScaDFX=  1.000000  1.000000  1.000000  1.000000
 FoFCou: FMM=F IPFlag=           0 FMFlag=      100000 FMFlg1=           0
         NFxFlg=           0 DoJE=T BraDBF=F KetDBF=T FulRan=T
         wScrn=  0.000000 ICntrl=     500 IOpCl=  0 I1Cent=   200000004 NGrid=           0
         NMat0=    1 NMatS0=      1 NMatT0=    0 NMatD0=    1 NMtDS0=    0 NMtDT0=    0
 Petite list used in FoFCou.
 Initial guess orbital symmetries:
       Occupied  (A') (A') (A') (A') (A") (A') (A') (A") (A')
       Virtual   (A') (A') (A') (A") (A') (A') (A") (A') (A") (A')
                 (A') (A') (A') (A") (A') (A") (A') (A') (A') (A")
                 (A') (A') (A") (A') (A') (A") (A') (A') (A') (A")
                 (A") (A') (A') (A') (A')
 The electronic state of the initial guess is 1-A'.
 Keep R1 ints in memory in symmetry-blocked form, NReq=1348665.
 Requested convergence on RMS density matrix=1.00D-08 within 128 cycles.
 Requested convergence on MAX density matrix=1.00D-06.
 Requested convergence on             energy=1.00D-06.
 No special actions if energy rises.
 SCF Done:  E(RHF) =  -130.982540924     A.U. after   12 cycles
            NFock= 12  Conv=0.38D-08     -V/T= 2.0041

 **********************************************************************

            Population analysis using the SCF density.

 **********************************************************************

 Orbital symmetries:
       Occupied  (A') (A') (A') (A') (A") (A') (A') (A") (A')
       Virtual   (A') (A') (A") (A') (A') (A') (A") (A") (A') (A')
                 (A') (A') (A') (A") (A') (A") (A') (A') (A') (A')
                 (A") (A') (A") (A') (A') (A") (A') (A') (A') (A")
                 (A") (A') (A') (A') (A')
 The electronic state is 1-A'.
 Alpha  occ. eigenvalues --  -20.60375 -15.62290  -1.39220  -1.08408  -0.69149
 Alpha  occ. eigenvalues --   -0.67200  -0.61402  -0.48409  -0.43563
 Alpha virt. eigenvalues --    0.11126   0.12916   0.16788   0.18389   0.24328
 Alpha virt. eigenvalues --    0.28066   0.29356   0.34375   0.35662   0.36842
 Alpha virt. eigenvalues --    0.41132   0.47239   1.05642   1.09134   1.13540
 Alpha virt. eigenvalues --    1.18285   1.25677   1.32261   1.41847   1.43976
 Alpha virt. eigenvalues --    1.44704   1.55942   1.76143   1.76502   1.86205
 Alpha virt. eigenvalues --    2.03775   2.18587   2.46302   2.61329   2.62687
 Alpha virt. eigenvalues --    2.82167   2.82684   3.21640   4.20343   4.45386
          Condensed to atoms (all electrons):
               1          2          3          4          5
     1  H    0.368443   0.329552  -0.043702  -0.052613   0.002589
     2  N    0.329552   7.068890   0.329552   0.030872  -0.034239
     3  H   -0.043702   0.329552   0.368443  -0.052613   0.002589
     4  O   -0.052613   0.030872  -0.052613   8.410042   0.225119
     5  H    0.002589  -0.034239   0.002589   0.225119   0.309973
 Mulliken charges:
               1
     1  H    0.395731
     2  N   -0.724626
     3  H    0.395731
     4  O   -0.560806
     5  H    0.493970
 Sum of Mulliken charges =   0.00000
 Mulliken charges with hydrogens summed into heavy atoms:
               1
     2  N    0.066836
     4  O   -0.066836
 Electronic spatial extent (au):  <R**2>=             74.7621
 Charge=              0.0000 electrons
 Dipole moment (field-independent basis, Debye):
    X=              0.1524    Y=              0.7384    Z=              0.0000  Tot=              0.7540
 Quadrupole moment (field-independent basis, Debye-Ang):
   XX=            -11.0423   YY=            -13.1380   ZZ=            -11.6636
   XY=              4.3186   XZ=              0.0000   YZ=              0.0000
 Traceless Quadrupole moment (field-independent basis, Debye-Ang):
   XX=              0.9057   YY=             -1.1901   ZZ=              0.2844
   XY=              4.3186   XZ=              0.0000   YZ=              0.0000
 Octapole moment (field-independent basis, Debye-Ang**2):
  XXX=             -1.1944  YYY=             -1.7874  ZZZ=              0.0000  XYY=              0.3366
  XXY=             -2.5286  XXZ=              0.0000  XZZ=              1.3007  YZZ=              1.6592
  YYZ=              0.0000  XYZ=              0.0000
 Hexadecapole moment (field-independent basis, Debye-Ang**3):
 XXXX=            -14.0956 YYYY=            -55.5531 ZZZZ=            -13.6718 XXXY=              0.8324
 XXXZ=              0.0000 YYYX=              2.8131 YYYZ=              0.0000 ZZZX=              0.0000
 ZZZY=              0.0000 XXYY=            -10.6591 XXZZ=             -4.5138 YYZZ=            -11.1659
 XXYZ=              0.0000 YYXZ=              0.0000 ZZXY=              0.5846
 N-N= 3.897793070654D+01 E-N=-3.871630494370D+02  KE= 1.304424278539D+02
 Symmetry A'   KE= 1.230441257745D+02
 Symmetry A"   KE= 7.398302079479D+00
 Calling FoFJK, ICntrl=      2127 FMM=F ISym2X=1 I1Cent= 0 IOpClX= 0 NMat=1 NMatS=1 NMatT=0.
 ***** Axes restored to original set *****
 -------------------------------------------------------------------
 Center     Atomic                   Forces (Hartrees/Bohr)
 Number     Number              X              Y              Z
 -------------------------------------------------------------------
      1        1           0.003061258   -0.011279722   -0.014420853
      2        7           0.018441322    0.032551130    0.000000000
      3        1           0.003061258   -0.011279722    0.014420853
      4        8          -0.013650470   -0.040947339    0.000000000
      5        1          -0.010913368    0.030955653    0.000000000
 -------------------------------------------------------------------
 Cartesian Forces:  Max     0.040947339 RMS     0.018310582

 GradGradGradGradGradGradGradGradGradGradGradGradGradGradGradGradGradGrad
 Berny optimization.
 FormGI is forming the generalized inverse of G from B-inverse, IUseBI=4.
 Internal  Forces:  Max     0.032707429 RMS     0.015049216
 Search for a local minimum.
 Step number   1 out of a maximum of   21
 All quantities printed in internal units (Hartrees-Bohrs-Radians)
 Mixed Optimization -- RFO/linear search
 Second derivative matrix not updated -- first step.
 The second derivative matrix:
                          R1        R2        R3        R4        A1
           R1           0.43801
           R2           0.00000   0.43801
           R3           0.00000   0.00000   0.37758
           R4           0.00000   0.00000   0.00000   0.51619
           A1           0.00000   0.00000   0.00000   0.00000   0.16000
           A2           0.00000   0.00000   0.00000   0.00000   0.00000
           A3           0.00000   0.00000   0.00000   0.00000   0.00000
           A4           0.00000   0.00000   0.00000   0.00000   0.00000
           D1           0.00000   0.00000   0.00000   0.00000   0.00000
           D2           0.00000   0.00000   0.00000   0.00000   0.00000
           D3           0.00000   0.00000   0.00000   0.00000   0.00000
                          A2        A3        A4        D1        D2
           A2           0.16000
           A3           0.00000   0.16000
           A4           0.00000   0.00000   0.16000
           D1           0.00000   0.00000   0.00000   0.00719
           D2           0.00000   0.00000   0.00000   0.00000   0.00584
           D3           0.00000   0.00000   0.00000   0.00000   0.00000
                          D3
           D3           0.00584
 ITU=  0
     Eigenvalues ---    0.00584   0.06457   0.11772   0.16000   0.16000
     Eigenvalues ---    0.37758   0.43801   0.43801   0.51619
 RFO step:  Lambda=-6.00608460D-03 EMin= 5.83819082D-03
 Linear search not attempted -- first point.
 Iteration  1 RMS(Cart)=  0.02706562 RMS(Int)=  0.00093783
 Iteration  2 RMS(Cart)=  0.00098948 RMS(Int)=  0.00046615
 Iteration  3 RMS(Cart)=  0.00000048 RMS(Int)=  0.00046615
 ClnCor:  largest displacement from symmetrization is 3.80D-03 for atom     3.
 Variable       Old X    -DE/DX   Delta X   Delta X   Delta X     New X
                                 (Linear)    (Quad)   (Total)
    R1        1.93393  -0.01826   0.00000  -0.04112  -0.04209   1.89185
    R2        1.93393  -0.01826   0.00000  -0.04112  -0.04209   1.89185
    R3        2.74719  -0.02610   0.00000  -0.06804  -0.06804   2.67915
    R4        1.84966  -0.03271   0.00000  -0.06263  -0.06263   1.78703
    A1        1.84386  -0.00003   0.00000   0.01107   0.01103   1.85489
    A2        1.77786   0.00209   0.00000   0.03546   0.03567   1.81352
    A3        1.77786   0.00502   0.00000   0.03866   0.03567   1.81352
    A4        1.78555   0.00509   0.00000   0.03067   0.03067   1.81622
    D1        1.85145   0.00402   0.00000   0.05525   0.05591   1.90736
    D2        2.19031  -0.00103   0.00000  -0.01680  -0.01759   2.17272
    D3       -2.19031   0.00103   0.00000   0.01680   0.01759  -2.17272
         Item               Value     Threshold  Converged?
 Maximum Force            0.032707     0.000450     NO 
 RMS     Force            0.015049     0.000300     NO 
 Maximum Displacement     0.037592     0.001800     NO 
 RMS     Displacement     0.027716     0.001200     NO 
 Predicted change in Energy=-3.067254D-03
 GradGradGradGradGradGradGradGradGradGradGradGradGradGradGradGradGradGrad

                          Input orientation:                          
 ---------------------------------------------------------------------
 Center     Atomic      Atomic             Coordinates (Angstroms)
 Number     Number       Type             X           Y           Z
 ---------------------------------------------------------------------
      1          1           0       -1.017598    0.356894    0.800986
      2          7           0       -0.679024   -0.139124    0.000000
      3          1           0       -1.017598    0.356894   -0.800986
      4          8           0        0.714081    0.124042    0.000000
      5          1           0        1.110128   -0.734682    0.000000
 ---------------------------------------------------------------------
                    Distance matrix (angstroms):
                    1          2          3          4          5
     1  H    0.000000
     2  N    1.001122   0.000000
     3  H    1.601973   1.001122   0.000000
     4  O    1.922111   1.417744   1.922111   0.000000
     5  H    2.521970   1.885670   2.521970   0.945653   0.000000
 Stoichiometry    H3NO
 Framework group  CS[SG(HNO),X(H2)]
 Deg. of freedom     6
 Full point group                 CS      NOp   2
 Largest Abelian subgroup         CS      NOp   2
 Largest concise Abelian subgroup CS      NOp   2
                         Standard orientation:                         
 ---------------------------------------------------------------------
 Center     Atomic      Atomic             Coordinates (Angstroms)
 Number     Number       Type             X           Y           Z
 ---------------------------------------------------------------------
      1          1           0        0.540068    0.935519    0.800986
      2          7           0       -0.010176    0.694901    0.000000
      3          1           0        0.540068    0.935519   -0.800986
      4          8           0       -0.010176   -0.722842    0.000000
      5          1           0       -0.927492   -0.952607    0.000000
 ---------------------------------------------------------------------
 Rotational constants (GHZ):    200.0045246     26.2802255     26.1990813
 Standard basis: 6-31+G(d) (6D, 7F)
 There are    32 symmetry adapted cartesian basis functions of A'  symmetry.
 There are    12 symmetry adapted cartesian basis functions of A"  symmetry.
 There are    32 symmetry adapted basis functions of A'  symmetry.
 There are    12 symmetry adapted basis functions of A"  symmetry.
    44 basis functions,    76 primitive gaussians,    44 cartesian basis functions
     9 alpha electrons        9 beta electrons
       nuclear repulsion energy        39.8984326644 Hartrees.
 NAtoms=    5 NActive=    5 NUniq=    4 SFac= 1.56D+00 NAtFMM=   60 NAOKFM=F Big=F
 Integral buffers will be    262144 words long.
 Raffenetti 1 integral format.
 Two-electron integral symmetry is turned on.
 One-electron integrals computed using PRISM.
 NBasis=    44 RedAO= T EigKep=  3.46D-03  NBF=    32    12
 NBsUse=    44 1.00D-06 EigRej= -1.00D+00 NBFU=    32    12
 Initial guess from the checkpoint file:  "C:\Users\hp\Desktop\ChemProj-402210676\hydroxylamine.Conf.M0001_1.chk"
 B after Tr=     0.000000    0.000000    0.000000
         Rot=    0.999989    0.000000    0.000000   -0.004692 Ang=  -0.54 deg.
 Initial guess orbital symmetries:
       Occupied  (A') (A') (A') (A') (A") (A') (A') (A") (A')
       Virtual   (A') (A') (A') (A') (A') (A') (A') (A') (A') (A')
                 (A') (A') (A') (A') (A') (A') (A') (A') (A') (A')
                 (A') (A') (A') (A') (A') (A") (A") (A") (A") (A")
                 (A") (A") (A") (A") (A")
 ExpMin= 6.39D-02 ExpMax= 5.48D+03 ExpMxC= 8.25D+02 IAcc=2 IRadAn=         4 AccDes= 0.00D+00
 Harris functional with IExCor=  205 and IRadAn=       4 diagonalized for initial guess.
 HarFok:  IExCor=  205 AccDes= 0.00D+00 IRadAn=         4 IDoV= 1 UseB2=F ITyADJ=14
 ICtDFT=  3500011 ScaDFX=  1.000000  1.000000  1.000000  1.000000
 FoFCou: FMM=F IPFlag=           0 FMFlag=      100000 FMFlg1=           0
         NFxFlg=           0 DoJE=T BraDBF=F KetDBF=T FulRan=T
         wScrn=  0.000000 ICntrl=     500 IOpCl=  0 I1Cent=   200000004 NGrid=           0
         NMat0=    1 NMatS0=      1 NMatT0=    0 NMatD0=    1 NMtDS0=    0 NMtDT0=    0
 Petite list used in FoFCou.
 Keep R1 ints in memory in symmetry-blocked form, NReq=1348708.
 Requested convergence on RMS density matrix=1.00D-08 within 128 cycles.
 Requested convergence on MAX density matrix=1.00D-06.
 Requested convergence on             energy=1.00D-06.
 No special actions if energy rises.
 SCF Done:  E(RHF) =  -130.985988103     A.U. after   11 cycles
            NFock= 11  Conv=0.52D-08     -V/T= 2.0027
 Calling FoFJK, ICntrl=      2127 FMM=F ISym2X=1 I1Cent= 0 IOpClX= 0 NMat=1 NMatS=1 NMatT=0.
 ***** Axes restored to original set *****
 -------------------------------------------------------------------
 Center     Atomic                   Forces (Hartrees/Bohr)
 Number     Number              X              Y              Z
 -------------------------------------------------------------------
      1        1          -0.001098895   -0.000821978    0.001483036
      2        7           0.010696586    0.004903471    0.000000000
      3        1          -0.001098895   -0.000821978   -0.001483036
      4        8          -0.009617289   -0.002494557    0.000000000
      5        1           0.001118494   -0.000764959    0.000000000
 -------------------------------------------------------------------
 Cartesian Forces:  Max     0.010696586 RMS     0.004059372

 GradGradGradGradGradGradGradGradGradGradGradGradGradGradGradGradGradGrad
 Berny optimization.
 Using GEDIIS/GDIIS optimizer.
 FormGI is forming the generalized inverse of G from B-inverse, IUseBI=4.
 Internal  Forces:  Max     0.008956138 RMS     0.002935376
 Search for a local minimum.
 Step number   2 out of a maximum of   21
 All quantities printed in internal units (Hartrees-Bohrs-Radians)
 Mixed Optimization -- RFO/linear search
 Update second derivatives using D2CorX and points    1    2
 DE= -3.45D-03 DEPred=-3.07D-03 R= 1.12D+00
 TightC=F SS=  1.41D+00  RLast= 1.39D-01 DXNew= 5.0454D-01 4.1835D-01
 Trust test= 1.12D+00 RLast= 1.39D-01 DXMaxT set to 4.18D-01
 The second derivative matrix:
                          R1        R2        R3        R4        A1
           R1           0.45131
           R2           0.01330   0.45131
           R3          -0.01751  -0.01751   0.32135
           R4           0.02272   0.02272  -0.03124   0.55497
           A1           0.00929   0.00929   0.01100   0.01626   0.15968
           A2           0.01216   0.01216   0.01980   0.02138  -0.00200
           A3           0.00582   0.00582   0.01419   0.01030  -0.00234
           A4           0.00125   0.00125   0.00890   0.00232  -0.00221
           D1          -0.00728  -0.00728  -0.00579  -0.01270  -0.00058
           D2          -0.00009  -0.00009  -0.00024  -0.00016   0.00004
           D3           0.00009   0.00009   0.00024   0.00016  -0.00004
                          A2        A3        A4        D1        D2
           A2           0.15495
           A3          -0.00455   0.15652
           A4          -0.00362  -0.00236   0.15872
           D1           0.00029   0.00105   0.00136   0.00819
           D2           0.00008   0.00006   0.00004  -0.00002   0.00584
           D3          -0.00008  -0.00006  -0.00004   0.00002   0.00000
                          D3
           D3           0.00584
 ITU=  1  0
 Use linear search instead of GDIIS.
     Eigenvalues ---    0.00584   0.05676   0.12071   0.15762   0.16001
     Eigenvalues ---    0.31579   0.43801   0.45573   0.57104
 RFO step:  Lambda=-3.18781116D-04 EMin= 5.83819082D-03
 Quartic linear search produced a step of  0.11839.
 Iteration  1 RMS(Cart)=  0.01016514 RMS(Int)=  0.00029236
 Iteration  2 RMS(Cart)=  0.00019136 RMS(Int)=  0.00022842
 Iteration  3 RMS(Cart)=  0.00000001 RMS(Int)=  0.00022842
 ClnCor:  largest displacement from symmetrization is 1.85D-03 for atom     3.
 Variable       Old X    -DE/DX   Delta X   Delta X   Delta X     New X
                                 (Linear)    (Quad)   (Total)
    R1        1.89185   0.00115  -0.00498   0.00614   0.00068   1.89252
    R2        1.89185   0.00115  -0.00498   0.00614   0.00068   1.89252
    R3        2.67915  -0.00896  -0.00806  -0.02105  -0.02911   2.65004
    R4        1.78703   0.00116  -0.00742   0.00737  -0.00005   1.78698
    A1        1.85489   0.00102   0.00131   0.01538   0.01673   1.87162
    A2        1.81352   0.00056   0.00422   0.01230   0.01654   1.83006
    A3        1.81352   0.00174   0.00422   0.01381   0.01654   1.83006
    A4        1.81622   0.00124   0.00363   0.00575   0.00938   1.82561
    D1        1.90736   0.00167   0.00662   0.02465   0.03169   1.93905
    D2        2.17272  -0.00097  -0.00208  -0.01310  -0.01548   2.15724
    D3       -2.17272   0.00097   0.00208   0.01310   0.01548  -2.15724
         Item               Value     Threshold  Converged?
 Maximum Force            0.008956     0.000450     NO 
 RMS     Force            0.002935     0.000300     NO 
 Maximum Displacement     0.020235     0.001800     NO 
 RMS     Displacement     0.010114     0.001200     NO 
 Predicted change in Energy=-2.189603D-04
 GradGradGradGradGradGradGradGradGradGradGradGradGradGradGradGradGradGrad

                          Input orientation:                          
 ---------------------------------------------------------------------
 Center     Atomic      Atomic             Coordinates (Angstroms)
 Number     Number       Type             X           Y           Z
 ---------------------------------------------------------------------
      1          1           0       -1.018361    0.352748    0.806271
      2          7           0       -0.669980   -0.128416    0.000000
      3          1           0       -1.018361    0.352748   -0.806271
      4          8           0        0.709769    0.122292    0.000000
      5          1           0        1.107885   -0.735447    0.000000
 ---------------------------------------------------------------------
                    Distance matrix (angstroms):
                    1          2          3          4          5
     1  H    0.000000
     2  N    1.001479   0.000000
     3  H    1.612542   1.001479   0.000000
     4  O    1.920837   1.402341   1.920837   0.000000
     5  H    2.520945   1.878640   2.520945   0.945628   0.000000
 Stoichiometry    H3NO
 Framework group  CS[SG(HNO),X(H2)]
 Deg. of freedom     6
 Full point group                 CS      NOp   2
 Largest Abelian subgroup         CS      NOp   2
 Largest concise Abelian subgroup CS      NOp   2
                         Standard orientation:                         
 ---------------------------------------------------------------------
 Center     Atomic      Atomic             Coordinates (Angstroms)
 Number     Number       Type             X           Y           Z
 ---------------------------------------------------------------------
      1          1           0        0.527012    0.942632    0.806271
      2          7           0       -0.008683    0.685885    0.000000
      3          1           0        0.527012    0.942632   -0.806271
      4          8           0       -0.008683   -0.716456    0.000000
      5          1           0       -0.923778   -0.954813    0.000000
 ---------------------------------------------------------------------
 Rotational constants (GHZ):    201.3787372     26.7341333     26.5780112
 Standard basis: 6-31+G(d) (6D, 7F)
 There are    32 symmetry adapted cartesian basis functions of A'  symmetry.
 There are    12 symmetry adapted cartesian basis functions of A"  symmetry.
 There are    32 symmetry adapted basis functions of A'  symmetry.
 There are    12 symmetry adapted basis functions of A"  symmetry.
    44 basis functions,    76 primitive gaussians,    44 cartesian basis functions
     9 alpha electrons        9 beta electrons
       nuclear repulsion energy        40.1337561661 Hartrees.
 NAtoms=    5 NActive=    5 NUniq=    4 SFac= 1.56D+00 NAtFMM=   60 NAOKFM=F Big=F
 Integral buffers will be    262144 words long.
 Raffenetti 1 integral format.
 Two-electron integral symmetry is turned on.
 One-electron integrals computed using PRISM.
 NBasis=    44 RedAO= T EigKep=  3.39D-03  NBF=    32    12
 NBsUse=    44 1.00D-06 EigRej= -1.00D+00 NBFU=    32    12
 Initial guess from the checkpoint file:  "C:\Users\hp\Desktop\ChemProj-402210676\hydroxylamine.Conf.M0001_1.chk"
 B after Tr=     0.000000    0.000000    0.000000
         Rot=    0.999999    0.000000    0.000000   -0.001692 Ang=  -0.19 deg.
 Initial guess orbital symmetries:
       Occupied  (A') (A') (A') (A') (A") (A') (A') (A") (A')
       Virtual   (A') (A') (A') (A') (A') (A') (A') (A') (A') (A')
                 (A') (A') (A') (A') (A') (A') (A') (A') (A') (A')
                 (A') (A') (A') (A') (A') (A") (A") (A") (A") (A")
                 (A") (A") (A") (A") (A")
 ExpMin= 6.39D-02 ExpMax= 5.48D+03 ExpMxC= 8.25D+02 IAcc=2 IRadAn=         4 AccDes= 0.00D+00
 Harris functional with IExCor=  205 and IRadAn=       4 diagonalized for initial guess.
 HarFok:  IExCor=  205 AccDes= 0.00D+00 IRadAn=         4 IDoV= 1 UseB2=F ITyADJ=14
 ICtDFT=  3500011 ScaDFX=  1.000000  1.000000  1.000000  1.000000
 FoFCou: FMM=F IPFlag=           0 FMFlag=      100000 FMFlg1=           0
         NFxFlg=           0 DoJE=T BraDBF=F KetDBF=T FulRan=T
         wScrn=  0.000000 ICntrl=     500 IOpCl=  0 I1Cent=   200000004 NGrid=           0
         NMat0=    1 NMatS0=      1 NMatT0=    0 NMatD0=    1 NMtDS0=    0 NMtDT0=    0
 Petite list used in FoFCou.
 Keep R1 ints in memory in symmetry-blocked form, NReq=1348722.
 Requested convergence on RMS density matrix=1.00D-08 within 128 cycles.
 Requested convergence on MAX density matrix=1.00D-06.
 Requested convergence on             energy=1.00D-06.
 No special actions if energy rises.
 SCF Done:  E(RHF) =  -130.986205265     A.U. after   10 cycles
            NFock= 10  Conv=0.76D-08     -V/T= 2.0025
 Calling FoFJK, ICntrl=      2127 FMM=F ISym2X=1 I1Cent= 0 IOpClX= 0 NMat=1 NMatS=1 NMatT=0.
 ***** Axes restored to original set *****
 -------------------------------------------------------------------
 Center     Atomic                   Forces (Hartrees/Bohr)
 Number     Number              X              Y              Z
 -------------------------------------------------------------------
      1        1          -0.000470261    0.000178613   -0.000005032
      2        7           0.001044997    0.000048746    0.000000000
      3        1          -0.000470261    0.000178613    0.000005032
      4        8          -0.000741456    0.000449335    0.000000000
      5        1           0.000636981   -0.000855307    0.000000000
 -------------------------------------------------------------------
 Cartesian Forces:  Max     0.001044997 RMS     0.000482321

 GradGradGradGradGradGradGradGradGradGradGradGradGradGradGradGradGradGrad
 Berny optimization.
 Using GEDIIS/GDIIS optimizer.
 FormGI is forming the generalized inverse of G from B-inverse, IUseBI=4.
 Internal  Forces:  Max     0.001043986 RMS     0.000426304
 Search for a local minimum.
 Step number   3 out of a maximum of   21
 All quantities printed in internal units (Hartrees-Bohrs-Radians)
 Mixed Optimization -- En-DIIS/RFO-DIIS
 Update second derivatives using D2CorX and points    1    2    3
 DE= -2.17D-04 DEPred=-2.19D-04 R= 9.92D-01
 TightC=F SS=  1.41D+00  RLast= 5.70D-02 DXNew= 7.0358D-01 1.7094D-01
 Trust test= 9.92D-01 RLast= 5.70D-02 DXMaxT set to 4.18D-01
 The second derivative matrix:
                          R1        R2        R3        R4        A1
           R1           0.45076
           R2           0.01276   0.45076
           R3          -0.01412  -0.01412   0.32074
           R4           0.02263   0.02263  -0.00387   0.56094
           A1           0.00891   0.00891   0.02926   0.01373   0.15317
           A2           0.01251   0.01251   0.05584   0.02350  -0.01040
           A3           0.00557   0.00557   0.03304   0.00790  -0.00907
           A4           0.00103   0.00103   0.01565   0.00000  -0.00565
           D1          -0.00807  -0.00807  -0.02655  -0.01874   0.00107
           D2           0.00063   0.00063   0.02233   0.00495  -0.00277
           D3          -0.00063  -0.00063  -0.02233  -0.00495   0.00277
                          A2        A3        A4        D1        D2
           A2           0.14708
           A3          -0.01329   0.14955
           A4          -0.00880  -0.00593   0.15705
           D1          -0.00151   0.00279   0.00317   0.01289
           D2           0.00000  -0.00289  -0.00231  -0.00395   0.00882
           D3           0.00000   0.00289   0.00231   0.00395  -0.00299
                          D3
           D3           0.00882
 ITU=  1  1  0
 Use linear search instead of GDIIS.
     Eigenvalues ---    0.00584   0.05552   0.12392   0.15444   0.16004
     Eigenvalues ---    0.32089   0.43801   0.45642   0.57090
 RFO step:  Lambda=-7.69889940D-06 EMin= 5.83819082D-03
 Quartic linear search produced a step of  0.04986.
 Iteration  1 RMS(Cart)=  0.00248199 RMS(Int)=  0.00001077
 Iteration  2 RMS(Cart)=  0.00000338 RMS(Int)=  0.00000980
 Iteration  3 RMS(Cart)=  0.00000000 RMS(Int)=  0.00000980
 ClnCor:  largest displacement from symmetrization is 1.32D-04 for atom     3.
 Variable       Old X    -DE/DX   Delta X   Delta X   Delta X     New X
                                 (Linear)    (Quad)   (Total)
    R1        1.89252   0.00025   0.00003   0.00036   0.00036   1.89288
    R2        1.89252   0.00025   0.00003   0.00036   0.00036   1.89288
    R3        2.65004  -0.00018  -0.00145   0.00044  -0.00101   2.64903
    R4        1.78698   0.00104   0.00000   0.00184   0.00184   1.78881
    A1        1.87162  -0.00045   0.00083  -0.00367  -0.00283   1.86879
    A2        1.83006   0.00026   0.00082   0.00279   0.00363   1.83369
    A3        1.83006   0.00047   0.00082   0.00291   0.00363   1.83369
    A4        1.82561   0.00039   0.00047   0.00225   0.00272   1.82833
    D1        1.93905   0.00031   0.00158   0.00291   0.00451   1.94356
    D2        2.15724   0.00011  -0.00077   0.00090   0.00011   2.15735
    D3       -2.15724  -0.00011   0.00077  -0.00090  -0.00011  -2.15735
         Item               Value     Threshold  Converged?
 Maximum Force            0.001044     0.000450     NO 
 RMS     Force            0.000426     0.000300     NO 
 Maximum Displacement     0.004543     0.001800     NO 
 RMS     Displacement     0.002464     0.001200     NO 
 Predicted change in Energy=-4.370883D-06
 GradGradGradGradGradGradGradGradGradGradGradGradGradGradGradGradGradGrad

                          Input orientation:                          
 ---------------------------------------------------------------------
 Center     Atomic      Atomic             Coordinates (Angstroms)
 Number     Number       Type             X           Y           Z
 ---------------------------------------------------------------------
      1          1           0       -1.020325    0.353169    0.805583
      2          7           0       -0.669069   -0.127452    0.000000
      3          1           0       -1.020325    0.353169   -0.805583
      4          8           0        0.710450    0.121521    0.000000
      5          1           0        1.110289   -0.736489    0.000000
 ---------------------------------------------------------------------
                    Distance matrix (angstroms):
                    1          2          3          4          5
     1  H    0.000000
     2  N    1.001669   0.000000
     3  H    1.611165   1.001669   0.000000
     4  O    1.923072   1.401806   1.923072   0.000000
     5  H    2.525041   1.880702   2.525041   0.946600   0.000000
 Stoichiometry    H3NO
 Framework group  CS[SG(HNO),X(H2)]
 Deg. of freedom     6
 Full point group                 CS      NOp   2
 Largest Abelian subgroup         CS      NOp   2
 Largest concise Abelian subgroup CS      NOp   2
                         Standard orientation:                         
 ---------------------------------------------------------------------
 Center     Atomic      Atomic             Coordinates (Angstroms)
 Number     Number       Type             X           Y           Z
 ---------------------------------------------------------------------
      1          1           0        0.526735    0.945683    0.805583
      2          7           0       -0.008630    0.685374    0.000000
      3          1           0        0.526735    0.945683   -0.805583
      4          8           0       -0.008630   -0.716432    0.000000
      5          1           0       -0.924014   -0.957524    0.000000
 ---------------------------------------------------------------------
 Rotational constants (GHZ):    201.6659464     26.7254923     26.5707249
 Standard basis: 6-31+G(d) (6D, 7F)
 There are    32 symmetry adapted cartesian basis functions of A'  symmetry.
 There are    12 symmetry adapted cartesian basis functions of A"  symmetry.
 There are    32 symmetry adapted basis functions of A'  symmetry.
 There are    12 symmetry adapted basis functions of A"  symmetry.
    44 basis functions,    76 primitive gaussians,    44 cartesian basis functions
     9 alpha electrons        9 beta electrons
       nuclear repulsion energy        40.1281463145 Hartrees.
 NAtoms=    5 NActive=    5 NUniq=    4 SFac= 1.56D+00 NAtFMM=   60 NAOKFM=F Big=F
 Integral buffers will be    262144 words long.
 Raffenetti 1 integral format.
 Two-electron integral symmetry is turned on.
 One-electron integrals computed using PRISM.
 NBasis=    44 RedAO= T EigKep=  3.39D-03  NBF=    32    12
 NBsUse=    44 1.00D-06 EigRej= -1.00D+00 NBFU=    32    12
 Initial guess from the checkpoint file:  "C:\Users\hp\Desktop\ChemProj-402210676\hydroxylamine.Conf.M0001_1.chk"
 B after Tr=     0.000000    0.000000    0.000000
         Rot=    1.000000    0.000000    0.000000   -0.000265 Ang=  -0.03 deg.
 Initial guess orbital symmetries:
       Occupied  (A') (A') (A') (A') (A") (A') (A') (A") (A')
       Virtual   (A') (A') (A') (A') (A') (A') (A') (A') (A') (A')
                 (A') (A') (A') (A') (A') (A') (A') (A') (A') (A')
                 (A') (A') (A') (A') (A') (A") (A") (A") (A") (A")
                 (A") (A") (A") (A") (A")
 Keep R1 ints in memory in symmetry-blocked form, NReq=1348722.
 Requested convergence on RMS density matrix=1.00D-08 within 128 cycles.
 Requested convergence on MAX density matrix=1.00D-06.
 Requested convergence on             energy=1.00D-06.
 No special actions if energy rises.
 SCF Done:  E(RHF) =  -130.986207662     A.U. after    9 cycles
            NFock=  9  Conv=0.65D-08     -V/T= 2.0026
 Calling FoFJK, ICntrl=      2127 FMM=F ISym2X=1 I1Cent= 0 IOpClX= 0 NMat=1 NMatS=1 NMatT=0.
 ***** Axes restored to original set *****
 -------------------------------------------------------------------
 Center     Atomic                   Forces (Hartrees/Bohr)
 Number     Number              X              Y              Z
 -------------------------------------------------------------------
      1        1           0.000188184    0.000072833    0.000143422
      2        7           0.000212670   -0.000365865    0.000000000
      3        1           0.000188184    0.000072833   -0.000143422
      4        8          -0.000337467    0.000226506    0.000000000
      5        1          -0.000251571   -0.000006308    0.000000000
 -------------------------------------------------------------------
 Cartesian Forces:  Max     0.000365865 RMS     0.000188003

 GradGradGradGradGradGradGradGradGradGradGradGradGradGradGradGradGradGrad
 Berny optimization.
 Using GEDIIS/GDIIS optimizer.
 FormGI is forming the generalized inverse of G from B-inverse, IUseBI=4.
 Internal  Forces:  Max     0.000540563 RMS     0.000249050
 Search for a local minimum.
 Step number   4 out of a maximum of   21
 All quantities printed in internal units (Hartrees-Bohrs-Radians)
 Mixed Optimization -- En-DIIS/RFO-DIIS
 Swapping is turned off.
 Update second derivatives using D2CorX and points    1    2    3    4
 DE= -2.40D-06 DEPred=-4.37D-06 R= 5.48D-01
 TightC=F SS=  1.41D+00  RLast= 8.17D-03 DXNew= 7.0358D-01 2.4506D-02
 Trust test= 5.48D-01 RLast= 8.17D-03 DXMaxT set to 4.18D-01
 The second derivative matrix:
                          R1        R2        R3        R4        A1
           R1           0.44953
           R2           0.01152   0.44953
           R3          -0.00367  -0.00367   0.30217
           R4           0.01147   0.01147   0.04889   0.53957
           A1           0.00736   0.00736  -0.00058   0.00506   0.15032
           A2          -0.00252  -0.00252   0.07930  -0.00695  -0.00633
           A3          -0.00155  -0.00155   0.06479   0.01218  -0.01776
           A4          -0.00030  -0.00030   0.04326   0.02352  -0.02017
           D1           0.00185   0.00185  -0.01393   0.02764  -0.01682
           D2          -0.00332  -0.00332   0.01828   0.00929  -0.01278
           D3           0.00332   0.00332  -0.01828  -0.00929   0.01278
                          A2        A3        A4        D1        D2
           A2           0.13533
           A3          -0.01520   0.16882
           A4          -0.00329   0.02182   0.19143
           D1           0.01157   0.03232   0.03460   0.03667
           D2           0.00641   0.00752   0.00801   0.00185   0.00874
           D3          -0.00641  -0.00752  -0.00801  -0.00185  -0.00291
                          D3
           D3           0.00874
 ITU=  1  1  1  0
     Eigenvalues ---    0.00584   0.06256   0.12549   0.15903   0.18551
     Eigenvalues ---    0.33333   0.43801   0.46048   0.55735
 En-DIIS/RFO-DIIS IScMMF=        0 using points:     4    3
 RFO step:  Lambda=-1.20005752D-06.
 DidBck=T Rises=F RFO-DIIS coefs:    0.69192    0.30808
 Iteration  1 RMS(Cart)=  0.00109405 RMS(Int)=  0.00000087
 Iteration  2 RMS(Cart)=  0.00000039 RMS(Int)=  0.00000076
 ClnCor:  largest displacement from symmetrization is 4.99D-05 for atom     3.
 Variable       Old X    -DE/DX   Delta X   Delta X   Delta X     New X
                                 (Linear)    (Quad)   (Total)
    R1        1.89288   0.00008  -0.00011   0.00028   0.00018   1.89306
    R2        1.89288   0.00008  -0.00011   0.00028   0.00018   1.89306
    R3        2.64903  -0.00054   0.00031  -0.00145  -0.00114   2.64789
    R4        1.78881  -0.00010  -0.00057   0.00063   0.00006   1.78888
    A1        1.86879   0.00018   0.00087  -0.00073   0.00013   1.86892
    A2        1.83369  -0.00015  -0.00112  -0.00006  -0.00119   1.83250
    A3        1.83369  -0.00030  -0.00112  -0.00011  -0.00119   1.83250
    A4        1.82833  -0.00041  -0.00084  -0.00064  -0.00148   1.82685
    D1        1.94356  -0.00022  -0.00139  -0.00042  -0.00181   1.94175
    D2        2.15735  -0.00001  -0.00003   0.00044   0.00041   2.15776
    D3       -2.15735   0.00001   0.00003  -0.00044  -0.00041  -2.15776
         Item               Value     Threshold  Converged?
 Maximum Force            0.000541     0.000450     NO 
 RMS     Force            0.000249     0.000300     YES
 Maximum Displacement     0.002144     0.001800     NO 
 RMS     Displacement     0.001088     0.001200     YES
 Predicted change in Energy=-1.108525D-06
 GradGradGradGradGradGradGradGradGradGradGradGradGradGradGradGradGradGrad

                          Input orientation:                          
 ---------------------------------------------------------------------
 Center     Atomic      Atomic             Coordinates (Angstroms)
 Number     Number       Type             X           Y           Z
 ---------------------------------------------------------------------
      1          1           0       -1.019548    0.353050    0.805699
      2          7           0       -0.668885   -0.128012    0.000000
      3          1           0       -1.019548    0.353050   -0.805699
      4          8           0        0.709821    0.122057    0.000000
      5          1           0        1.109154   -0.736225    0.000000
 ---------------------------------------------------------------------
                    Distance matrix (angstroms):
                    1          2          3          4          5
     1  H    0.000000
     2  N    1.001767   0.000000
     3  H    1.611398   1.001767   0.000000
     4  O    1.921777   1.401201   1.921777   0.000000
     5  H    2.523301   1.879188   2.523301   0.946634   0.000000
 Stoichiometry    H3NO
 Framework group  CS[SG(HNO),X(H2)]
 Deg. of freedom     6
 Full point group                 CS      NOp   2
 Largest Abelian subgroup         CS      NOp   2
 Largest concise Abelian subgroup CS      NOp   2
                         Standard orientation:                         
 ---------------------------------------------------------------------
 Center     Atomic      Atomic             Coordinates (Angstroms)
 Number     Number       Type             X           Y           Z
 ---------------------------------------------------------------------
      1          1           0        0.527251    0.944302    0.805699
      2          7           0       -0.008671    0.685122    0.000000
      3          1           0        0.527251    0.944302   -0.805699
      4          8           0       -0.008671   -0.716079    0.000000
      5          1           0       -0.924442   -0.955825    0.000000
 ---------------------------------------------------------------------
 Rotational constants (GHZ):    201.4775867     26.7530649     26.6002021
 Standard basis: 6-31+G(d) (6D, 7F)
 There are    32 symmetry adapted cartesian basis functions of A'  symmetry.
 There are    12 symmetry adapted cartesian basis functions of A"  symmetry.
 There are    32 symmetry adapted basis functions of A'  symmetry.
 There are    12 symmetry adapted basis functions of A"  symmetry.
    44 basis functions,    76 primitive gaussians,    44 cartesian basis functions
     9 alpha electrons        9 beta electrons
       nuclear repulsion energy        40.1411854043 Hartrees.
 NAtoms=    5 NActive=    5 NUniq=    4 SFac= 1.56D+00 NAtFMM=   60 NAOKFM=F Big=F
 Integral buffers will be    262144 words long.
 Raffenetti 1 integral format.
 Two-electron integral symmetry is turned on.
 One-electron integrals computed using PRISM.
 NBasis=    44 RedAO= T EigKep=  3.39D-03  NBF=    32    12
 NBsUse=    44 1.00D-06 EigRej= -1.00D+00 NBFU=    32    12
 Initial guess from the checkpoint file:  "C:\Users\hp\Desktop\ChemProj-402210676\hydroxylamine.Conf.M0001_1.chk"
 B after Tr=     0.000000    0.000000    0.000000
         Rot=    1.000000    0.000000    0.000000    0.000194 Ang=   0.02 deg.
 Initial guess orbital symmetries:
       Occupied  (A') (A') (A') (A') (A") (A') (A') (A") (A')
       Virtual   (A') (A') (A') (A') (A') (A') (A') (A') (A') (A')
                 (A') (A') (A') (A') (A') (A') (A') (A') (A') (A')
                 (A') (A') (A') (A') (A') (A") (A") (A") (A") (A")
                 (A") (A") (A") (A") (A")
 Keep R1 ints in memory in symmetry-blocked form, NReq=1348722.
 Requested convergence on RMS density matrix=1.00D-08 within 128 cycles.
 Requested convergence on MAX density matrix=1.00D-06.
 Requested convergence on             energy=1.00D-06.
 No special actions if energy rises.
 SCF Done:  E(RHF) =  -130.986208501     A.U. after    8 cycles
            NFock=  8  Conv=0.60D-08     -V/T= 2.0026
 Calling FoFJK, ICntrl=      2127 FMM=F ISym2X=1 I1Cent= 0 IOpClX= 0 NMat=1 NMatS=1 NMatT=0.
 ***** Axes restored to original set *****
 -------------------------------------------------------------------
 Center     Atomic                   Forces (Hartrees/Bohr)
 Number     Number              X              Y              Z
 -------------------------------------------------------------------
      1        1          -0.000016815   -0.000012437    0.000022725
      2        7          -0.000226973    0.000033017    0.000000000
      3        1          -0.000016815   -0.000012437   -0.000022725
      4        8           0.000267710   -0.000152372    0.000000000
      5        1          -0.000007107    0.000144230    0.000000000
 -------------------------------------------------------------------
 Cartesian Forces:  Max     0.000267710 RMS     0.000106537

 GradGradGradGradGradGradGradGradGradGradGradGradGradGradGradGradGradGrad
 Berny optimization.
 Using GEDIIS/GDIIS optimizer.
 FormGI is forming the generalized inverse of G from B-inverse, IUseBI=4.
 Internal  Forces:  Max     0.000254965 RMS     0.000092950
 Search for a local minimum.
 Step number   5 out of a maximum of   21
 All quantities printed in internal units (Hartrees-Bohrs-Radians)
 Mixed Optimization -- En-DIIS/RFO-DIIS
 Swapping is turned off.
 Update second derivatives using D2CorX and points    1    2    3    4    5
 DE= -8.39D-07 DEPred=-1.11D-06 R= 7.57D-01
 TightC=F SS=  1.41D+00  RLast= 3.17D-03 DXNew= 7.0358D-01 9.5013D-03
 Trust test= 7.57D-01 RLast= 3.17D-03 DXMaxT set to 4.18D-01
 The second derivative matrix:
                          R1        R2        R3        R4        A1
           R1           0.44380
           R2           0.00579   0.44380
           R3           0.00182   0.00182   0.42103
           R4           0.01107   0.01107  -0.01553   0.55465
           A1           0.01206   0.01206  -0.02266   0.01591   0.14307
           A2           0.00206   0.00206   0.03058  -0.01490  -0.00823
           A3           0.00374   0.00374   0.05798   0.00482  -0.02431
           A4           0.00302   0.00302   0.08885   0.00115  -0.03167
           D1           0.00324   0.00324   0.04115   0.02799  -0.02364
           D2           0.00024   0.00024   0.00035   0.01718  -0.01618
           D3          -0.00024  -0.00024  -0.00035  -0.01718   0.01618
                          A2        A3        A4        D1        D2
           A2           0.12052
           A3          -0.02608   0.16211
           A4          -0.01486   0.02072   0.20923
           D1           0.01584   0.03725   0.04830   0.03792
           D2          -0.00007   0.00049  -0.00242   0.00059   0.00965
           D3           0.00007  -0.00049   0.00242  -0.00059  -0.00381
                          D3
           D3           0.00965
 ITU=  1  1  1  1  0
     Eigenvalues ---    0.00584   0.06171   0.12855   0.16082   0.18766
     Eigenvalues ---    0.43801   0.44690   0.47963   0.55900
 En-DIIS/RFO-DIIS IScMMF=        0 using points:     5    4    3
 RFO step:  Lambda=-1.38628361D-07.
 DidBck=T Rises=F RFO-DIIS coefs:    0.65395    0.23713    0.10892
 Iteration  1 RMS(Cart)=  0.00020344 RMS(Int)=  0.00000025
 Iteration  2 RMS(Cart)=  0.00000001 RMS(Int)=  0.00000025
 ClnCor:  largest displacement from symmetrization is 4.77D-09 for atom     3.
 Variable       Old X    -DE/DX   Delta X   Delta X   Delta X     New X
                                 (Linear)    (Quad)   (Total)
    R1        1.89306   0.00002  -0.00010   0.00013   0.00003   1.89309
    R2        1.89306   0.00002  -0.00010   0.00013   0.00003   1.89309
    R3        2.64789   0.00025   0.00051   0.00006   0.00056   2.64845
    R4        1.78888  -0.00013  -0.00022   0.00000  -0.00022   1.78866
    A1        1.86892   0.00001   0.00026  -0.00001   0.00026   1.86917
    A2        1.83250   0.00001   0.00002  -0.00005  -0.00003   1.83246
    A3        1.83250   0.00003   0.00002  -0.00005  -0.00003   1.83246
    A4        1.82685   0.00010   0.00022   0.00003   0.00025   1.82709
    D1        1.94175   0.00003   0.00013  -0.00008   0.00005   1.94180
    D2        2.15776  -0.00001  -0.00015   0.00002  -0.00013   2.15763
    D3       -2.15776   0.00001   0.00015  -0.00002   0.00013  -2.15763
         Item               Value     Threshold  Converged?
 Maximum Force            0.000255     0.000450     YES
 RMS     Force            0.000093     0.000300     YES
 Maximum Displacement     0.000352     0.001800     YES
 RMS     Displacement     0.000203     0.001200     YES
 Predicted change in Energy=-1.038450D-07
 Optimization completed.
    -- Stationary point found.
                           ----------------------------
                           !   Optimized Parameters   !
                           ! (Angstroms and Degrees)  !
 --------------------------                            --------------------------
 ! Name  Definition              Value          Derivative Info.                !
 --------------------------------------------------------------------------------
 ! R1    R(1,2)                  1.0018         -DE/DX =    0.0                 !
 ! R2    R(2,3)                  1.0018         -DE/DX =    0.0                 !
 ! R3    R(2,4)                  1.4012         -DE/DX =    0.0003              !
 ! R4    R(4,5)                  0.9466         -DE/DX =   -0.0001              !
 ! A1    A(1,2,3)              107.0812         -DE/DX =    0.0                 !
 ! A2    A(1,2,4)              104.9943         -DE/DX =    0.0                 !
 ! A3    A(3,2,4)              104.9943         -DE/DX =    0.0                 !
 ! A4    A(2,4,5)              104.6706         -DE/DX =    0.0001              !
 ! D1    D(1,2,3,4)            111.2541         -DE/DX =    0.0                 !
 ! D2    D(1,2,4,5)            123.6304         -DE/DX =    0.0                 !
 ! D3    D(3,2,4,5)           -123.6304         -DE/DX =    0.0                 !
 --------------------------------------------------------------------------------
 GradGradGradGradGradGradGradGradGradGradGradGradGradGradGradGradGradGrad

                          Input orientation:                          
 ---------------------------------------------------------------------
 Center     Atomic      Atomic             Coordinates (Angstroms)
 Number     Number       Type             X           Y           Z
 ---------------------------------------------------------------------
      1          1           0       -1.019548    0.353050    0.805699
      2          7           0       -0.668885   -0.128012    0.000000
      3          1           0       -1.019548    0.353050   -0.805699
      4          8           0        0.709821    0.122057    0.000000
      5          1           0        1.109154   -0.736225    0.000000
 ---------------------------------------------------------------------
                    Distance matrix (angstroms):
                    1          2          3          4          5
     1  H    0.000000
     2  N    1.001767   0.000000
     3  H    1.611398   1.001767   0.000000
     4  O    1.921777   1.401201   1.921777   0.000000
     5  H    2.523301   1.879188   2.523301   0.946634   0.000000
 Stoichiometry    H3NO
 Framework group  CS[SG(HNO),X(H2)]
 Deg. of freedom     6
 Full point group                 CS      NOp   2
 Largest Abelian subgroup         CS      NOp   2
 Largest concise Abelian subgroup CS      NOp   2
                         Standard orientation:                         
 ---------------------------------------------------------------------
 Center     Atomic      Atomic             Coordinates (Angstroms)
 Number     Number       Type             X           Y           Z
 ---------------------------------------------------------------------
      1          1           0        0.527251    0.944302    0.805699
      2          7           0       -0.008671    0.685122    0.000000
      3          1           0        0.527251    0.944302   -0.805699
      4          8           0       -0.008671   -0.716079    0.000000
      5          1           0       -0.924442   -0.955825    0.000000
 ---------------------------------------------------------------------
 Rotational constants (GHZ):    201.4775867     26.7530649     26.6002021

 **********************************************************************

            Population analysis using the SCF density.

 **********************************************************************

 Orbital symmetries:
       Occupied  (A') (A') (A') (A') (A") (A') (A') (A") (A')
       Virtual   (A') (A') (A") (A') (A') (A') (A") (A") (A') (A')
                 (A') (A') (A') (A") (A') (A") (A') (A') (A') (A')
                 (A") (A') (A") (A') (A') (A") (A') (A') (A') (A")
                 (A") (A') (A') (A') (A')
 The electronic state is 1-A'.
 Alpha  occ. eigenvalues --  -20.59923 -15.61151  -1.41806  -1.08887  -0.70563
 Alpha  occ. eigenvalues --   -0.69163  -0.63231  -0.48408  -0.42400
 Alpha virt. eigenvalues --    0.11195   0.13110   0.16614   0.18499   0.24325
 Alpha virt. eigenvalues --    0.28220   0.29389   0.35951   0.36549   0.39639
 Alpha virt. eigenvalues --    0.42790   0.47902   1.04979   1.08959   1.13315
 Alpha virt. eigenvalues --    1.20491   1.27800   1.34428   1.40951   1.43872
 Alpha virt. eigenvalues --    1.45498   1.53729   1.76273   1.76424   1.85206
 Alpha virt. eigenvalues --    2.03099   2.24837   2.54466   2.66677   2.67671
 Alpha virt. eigenvalues --    2.84382   2.87659   3.21539   4.22883   4.47284
          Condensed to atoms (all electrons):
               1          2          3          4          5
     1  H    0.366834   0.337725  -0.045666  -0.053036   0.002469
     2  N    0.337725   7.056079   0.337725   0.023275  -0.038855
     3  H   -0.045666   0.337725   0.366834  -0.053036   0.002469
     4  O   -0.053036   0.023275  -0.053036   8.425619   0.228730
     5  H    0.002469  -0.038855   0.002469   0.228730   0.301034
 Mulliken charges:
               1
     1  H    0.391674
     2  N   -0.715950
     3  H    0.391674
     4  O   -0.571551
     5  H    0.504152
 Sum of Mulliken charges =   0.00000
 Mulliken charges with hydrogens summed into heavy atoms:
               1
     2  N    0.067399
     4  O   -0.067399
 Electronic spatial extent (au):  <R**2>=             72.1659
 Charge=              0.0000 electrons
 Dipole moment (field-independent basis, Debye):
    X=              0.0953    Y=              0.6973    Z=              0.0000  Tot=              0.7038
 Quadrupole moment (field-independent basis, Debye-Ang):
   XX=            -11.2942   YY=            -12.7585   ZZ=            -11.5562
   XY=              4.2586   XZ=              0.0000   YZ=              0.0000
 Traceless Quadrupole moment (field-independent basis, Debye-Ang):
   XX=              0.5754   YY=             -0.8889   ZZ=              0.3134
   XY=              4.2586   XZ=              0.0000   YZ=              0.0000
 Octapole moment (field-independent basis, Debye-Ang**2):
  XXX=             -1.0773  YYY=             -1.6117  ZZZ=              0.0000  XYY=              0.2624
  XXY=             -2.5336  XXZ=              0.0000  XZZ=              1.1688  YZZ=              1.6462
  YYZ=              0.0000  XYZ=              0.0000
 Hexadecapole moment (field-independent basis, Debye-Ang**3):
 XXXX=            -13.9775 YYYY=            -52.1054 ZZZZ=            -13.3584 XXXY=              0.8142
 XXXZ=              0.0000 YYYX=              3.1089 YYYZ=              0.0000 ZZZX=              0.0000
 ZZZY=              0.0000 XXYY=            -10.3065 XXZZ=             -4.4934 YYZZ=            -10.5394
 XXYZ=              0.0000 YYXZ=              0.0000 ZZXY=              0.6050
 N-N= 4.014118540435D+01 E-N=-3.895958225620D+02  KE= 1.306517031239D+02
 Symmetry A'   KE= 1.232121278454D+02
 Symmetry A"   KE= 7.439575278417D+00
 1|1|UNPC-LAPTOP-VTVSON0E|FOpt|RHF|6-31+G(d)|H3N1O1|HP|30-Jun-2024|0||#
  opt freq hf/6-31+g(d) geom=connectivity||M0001||0,1|H,-1.0195483934,0
 .3530504752,0.8056988447|N,-0.6688847813,-0.1280117473,0.|H,-1.0195483
 934,0.3530504752,-0.8056988447|O,0.7098213364,0.122057209,0.|H,1.10915
 41606,-0.7362252677,0.||Version=IA32W-G09RevD.01|State=1-A'|HF=-130.98
 62085|RMSD=6.038e-009|RMSF=1.065e-004|Dipole=-0.2766344,-0.0120612,0.|
 Quadrupole=0.4857964,-0.7188369,0.2330406,-3.1556492,0.,0.|PG=CS [SG(H
 1N1O1),X(H2)]||@


 AND HERE I AM, FOR ALL MY LORE,
 THE WRETCHED FOOL I WAS BEFORE.
 CALLED MASTER OF ARTS, AND DOCTOR TO BOOT,
 FOR TEN YEARS ALMOST I CONFUTE
 AND UP AND DOWN, WHEREVER IT GOES
 I DRAG MY STUDENTS BY THE NOSE --
 AND SEE THAT FOR ALL OUR SCIENCE AND ART
 WE CAN KNOW NOTHING.  IT BURNS MY HEART.

                                       -- FAUST
 Job cpu time:       0 days  0 hours  0 minutes  6.0 seconds.
 File lengths (MBytes):  RWF=      5 Int=      0 D2E=      0 Chk=      1 Scr=      1
 Normal termination of Gaussian 09 at Sun Jun 30 02:11:25 2024.
 Link1:  Proceeding to internal job step number  2.
 ------------------------------------------------------------------
 #N Geom=AllCheck Guess=TCheck SCRF=Check GenChk RHF/6-31+G(d) Freq
 ------------------------------------------------------------------
 1/10=4,29=7,30=1,38=1,40=1/1,3;
 2/12=2,40=1/2;
 3/5=1,6=6,7=11,11=1,14=-4,16=1,25=1,30=1,70=2,71=2,116=1,140=1/1,2,3;
 4/5=101/1;
 5/5=2,98=1/2;
 8/6=4,10=90,11=11/1;
 10/13=10,15=4/2;
 11/6=3,8=1,9=11,15=111,16=1/1,2,10;
 10/6=1/2;
 6/7=2,8=2,9=2,10=2,18=1,28=1/1;
 7/8=1,10=1,25=1/1,2,3,16;
 1/10=4,30=1/3;
 99//99;
 Structure from the checkpoint file:  "C:\Users\hp\Desktop\ChemProj-402210676\hydroxylamine.Conf.M0001_1.chk"
 -----
 M0001
 -----
 Charge =  0 Multiplicity = 1
 Redundant internal coordinates found in file.
 H,0,-1.0195483934,0.3530504752,0.8056988447
 N,0,-0.6688847813,-0.1280117473,0.
 H,0,-1.0195483934,0.3530504752,-0.8056988447
 O,0,0.7098213364,0.122057209,0.
 H,0,1.1091541606,-0.7362252677,0.
 Recover connectivity data from disk.

 GradGradGradGradGradGradGradGradGradGradGradGradGradGradGradGradGradGrad
 Berny optimization.
 Initialization pass.
                           ----------------------------
                           !    Initial Parameters    !
                           ! (Angstroms and Degrees)  !
 --------------------------                            --------------------------
 ! Name  Definition              Value          Derivative Info.                !
 --------------------------------------------------------------------------------
 ! R1    R(1,2)                  1.0018         calculate D2E/DX2 analytically  !
 ! R2    R(2,3)                  1.0018         calculate D2E/DX2 analytically  !
 ! R3    R(2,4)                  1.4012         calculate D2E/DX2 analytically  !
 ! R4    R(4,5)                  0.9466         calculate D2E/DX2 analytically  !
 ! A1    A(1,2,3)              107.0812         calculate D2E/DX2 analytically  !
 ! A2    A(1,2,4)              104.9943         calculate D2E/DX2 analytically  !
 ! A3    A(3,2,4)              104.9943         calculate D2E/DX2 analytically  !
 ! A4    A(2,4,5)              104.6706         calculate D2E/DX2 analytically  !
 ! D1    D(1,2,3,4)            111.2541         calculate D2E/DX2 analytically  !
 ! D2    D(1,2,4,5)            123.6304         calculate D2E/DX2 analytically  !
 ! D3    D(3,2,4,5)           -123.6304         calculate D2E/DX2 analytically  !
 --------------------------------------------------------------------------------
 Trust Radius=3.00D-01 FncErr=1.00D-07 GrdErr=1.00D-07
 Number of steps in this run=      2 maximum allowed number of steps=      2.
 GradGradGradGradGradGradGradGradGradGradGradGradGradGradGradGradGradGrad

                          Input orientation:                          
 ---------------------------------------------------------------------
 Center     Atomic      Atomic             Coordinates (Angstroms)
 Number     Number       Type             X           Y           Z
 ---------------------------------------------------------------------
      1          1           0       -1.019548    0.353050    0.805699
      2          7           0       -0.668885   -0.128012    0.000000
      3          1           0       -1.019548    0.353050   -0.805699
      4          8           0        0.709821    0.122057    0.000000
      5          1           0        1.109154   -0.736225    0.000000
 ---------------------------------------------------------------------
                    Distance matrix (angstroms):
                    1          2          3          4          5
     1  H    0.000000
     2  N    1.001767   0.000000
     3  H    1.611398   1.001767   0.000000
     4  O    1.921777   1.401201   1.921777   0.000000
     5  H    2.523301   1.879188   2.523301   0.946634   0.000000
 Stoichiometry    H3NO
 Framework group  CS[SG(HNO),X(H2)]
 Deg. of freedom     6
 Full point group                 CS      NOp   2
 Largest Abelian subgroup         CS      NOp   2
 Largest concise Abelian subgroup CS      NOp   2
                         Standard orientation:                         
 ---------------------------------------------------------------------
 Center     Atomic      Atomic             Coordinates (Angstroms)
 Number     Number       Type             X           Y           Z
 ---------------------------------------------------------------------
      1          1           0        0.527251    0.944302    0.805699
      2          7           0       -0.008671    0.685122    0.000000
      3          1           0        0.527251    0.944302   -0.805699
      4          8           0       -0.008671   -0.716079    0.000000
      5          1           0       -0.924442   -0.955825    0.000000
 ---------------------------------------------------------------------
 Rotational constants (GHZ):    201.4775867     26.7530649     26.6002021
 Standard basis: 6-31+G(d) (6D, 7F)
 There are    32 symmetry adapted cartesian basis functions of A'  symmetry.
 There are    12 symmetry adapted cartesian basis functions of A"  symmetry.
 There are    32 symmetry adapted basis functions of A'  symmetry.
 There are    12 symmetry adapted basis functions of A"  symmetry.
    44 basis functions,    76 primitive gaussians,    44 cartesian basis functions
     9 alpha electrons        9 beta electrons
       nuclear repulsion energy        40.1411854043 Hartrees.
 NAtoms=    5 NActive=    5 NUniq=    4 SFac= 1.56D+00 NAtFMM=   60 NAOKFM=F Big=F
 Integral buffers will be    262144 words long.
 Raffenetti 1 integral format.
 Two-electron integral symmetry is turned on.
 One-electron integrals computed using PRISM.
 NBasis=    44 RedAO= T EigKep=  3.39D-03  NBF=    32    12
 NBsUse=    44 1.00D-06 EigRej= -1.00D+00 NBFU=    32    12
 Initial guess from the checkpoint file:  "C:\Users\hp\Desktop\ChemProj-402210676\hydroxylamine.Conf.M0001_1.chk"
 B after Tr=     0.000000    0.000000    0.000000
         Rot=    1.000000    0.000000    0.000000    0.000000 Ang=   0.00 deg.
 Initial guess orbital symmetries:
       Occupied  (A') (A') (A') (A') (A") (A') (A') (A") (A')
       Virtual   (A') (A') (A") (A') (A') (A') (A") (A") (A') (A')
                 (A') (A') (A') (A") (A') (A") (A') (A') (A') (A')
                 (A") (A') (A") (A') (A') (A") (A') (A') (A') (A")
                 (A") (A') (A') (A') (A')
 Keep R1 ints in memory in symmetry-blocked form, NReq=1348722.
 Requested convergence on RMS density matrix=1.00D-08 within 128 cycles.
 Requested convergence on MAX density matrix=1.00D-06.
 Requested convergence on             energy=1.00D-06.
 No special actions if energy rises.
 SCF Done:  E(RHF) =  -130.986208501     A.U. after    1 cycles
            NFock=  1  Conv=0.82D-09     -V/T= 2.0026
 Range of M.O.s used for correlation:     1    44
 NBasis=    44 NAE=     9 NBE=     9 NFC=     0 NFV=     0
 NROrb=     44 NOA=     9 NOB=     9 NVA=    35 NVB=    35
          Differentiating once with respect to electric field.
                with respect to dipole field.
          Electric field/nuclear overlap derivatives assumed to be zero.
 Keep R1 ints in memory in symmetry-blocked form, NReq=1329029.
          There are     3 degrees of freedom in the 1st order CPHF.  IDoFFX=0 NUNeed=     3.
      3 vectors produced by pass  0 Test12= 1.05D-14 3.33D-08 XBig12= 3.01D+00 6.56D-01.
 AX will form     3 AO Fock derivatives at one time.
      3 vectors produced by pass  1 Test12= 1.05D-14 3.33D-08 XBig12= 2.00D-01 1.32D-01.
      3 vectors produced by pass  2 Test12= 1.05D-14 3.33D-08 XBig12= 1.43D-02 5.38D-02.
      3 vectors produced by pass  3 Test12= 1.05D-14 3.33D-08 XBig12= 6.75D-04 7.41D-03.
      3 vectors produced by pass  4 Test12= 1.05D-14 3.33D-08 XBig12= 2.74D-05 1.95D-03.
      3 vectors produced by pass  5 Test12= 1.05D-14 3.33D-08 XBig12= 7.53D-07 2.59D-04.
      3 vectors produced by pass  6 Test12= 1.05D-14 3.33D-08 XBig12= 1.09D-08 3.49D-05.
      3 vectors produced by pass  7 Test12= 1.05D-14 3.33D-08 XBig12= 1.75D-10 3.77D-06.
      3 vectors produced by pass  8 Test12= 1.05D-14 3.33D-08 XBig12= 4.05D-12 5.60D-07.
      2 vectors produced by pass  9 Test12= 1.05D-14 3.33D-08 XBig12= 5.33D-14 5.94D-08.
 InvSVY:  IOpt=1 It=  1 EMax= 2.22D-16
 Solved reduced A of dimension    29 with     3 vectors.
 End of Minotr F.D. properties file   721 does not exist.
 End of Minotr F.D. properties file   722 does not exist.
 End of Minotr F.D. properties file   788 does not exist.
 Symmetrizing basis deriv contribution to polar:
 IMax=3 JMax=2 DiffMx= 0.00D+00
 G2DrvN: will do     6 centers at a time, making    1 passes.
 PxScal for G2LodP:  IOpCl= 0 ISclPx=1 IMOff=     1 NMtTot=     4 NTT=     990 ScalPx= 3.51D+00
 Calling FoFCou, ICntrl=  3107 FMM=F I1Cent=   0 AccDes= 0.00D+00.
 End of G2Drv F.D. properties file   721 does not exist.
 End of G2Drv F.D. properties file   722 does not exist.
 End of G2Drv F.D. properties file   788 does not exist.
          IDoAtm=11111
          Differentiating once with respect to electric field.
                with respect to dipole field.
          Differentiating once with respect to nuclear coordinates.
 Keep R1 ints in memory in symmetry-blocked form, NReq=1329094.
          There are    15 degrees of freedom in the 1st order CPHF.  IDoFFX=4 NUNeed=    15.
 Will reuse    3 saved solutions.
     12 vectors produced by pass  0 Test12= 2.10D-15 6.67D-09 XBig12= 4.04D-02 5.58D-02.
 AX will form    12 AO Fock derivatives at one time.
     12 vectors produced by pass  1 Test12= 2.10D-15 6.67D-09 XBig12= 2.58D-03 1.63D-02.
     12 vectors produced by pass  2 Test12= 2.10D-15 6.67D-09 XBig12= 4.91D-05 2.08D-03.
     12 vectors produced by pass  3 Test12= 2.10D-15 6.67D-09 XBig12= 4.61D-07 2.58D-04.
     12 vectors produced by pass  4 Test12= 2.10D-15 6.67D-09 XBig12= 2.83D-09 1.69D-05.
     12 vectors produced by pass  5 Test12= 2.10D-15 6.67D-09 XBig12= 1.93D-11 1.33D-06.
     11 vectors produced by pass  6 Test12= 2.10D-15 6.67D-09 XBig12= 1.35D-13 1.11D-07.
      1 vectors produced by pass  7 Test12= 2.10D-15 6.67D-09 XBig12= 7.95D-16 8.56D-09.
 InvSVY:  IOpt=1 It=  1 EMax= 1.22D-15
 Solved reduced A of dimension    84 with    12 vectors.
 Isotropic polarizability for W=    0.000000       13.61 Bohr**3.
 End of Minotr F.D. properties file   721 does not exist.
 End of Minotr F.D. properties file   722 does not exist.
 End of Minotr F.D. properties file   788 does not exist.

 **********************************************************************

            Population analysis using the SCF density.

 **********************************************************************

 Orbital symmetries:
       Occupied  (A') (A') (A') (A') (A") (A') (A') (A") (A')
       Virtual   (A') (A') (A") (A') (A') (A') (A") (A") (A') (A')
                 (A') (A') (A') (A") (A') (A") (A') (A') (A') (A')
                 (A") (A') (A") (A') (A') (A") (A') (A') (A') (A")
                 (A") (A') (A') (A') (A')
 The electronic state is 1-A'.
 Alpha  occ. eigenvalues --  -20.59923 -15.61151  -1.41806  -1.08887  -0.70563
 Alpha  occ. eigenvalues --   -0.69163  -0.63231  -0.48408  -0.42400
 Alpha virt. eigenvalues --    0.11195   0.13110   0.16614   0.18499   0.24325
 Alpha virt. eigenvalues --    0.28220   0.29389   0.35951   0.36549   0.39639
 Alpha virt. eigenvalues --    0.42790   0.47902   1.04979   1.08959   1.13315
 Alpha virt. eigenvalues --    1.20491   1.27800   1.34428   1.40951   1.43872
 Alpha virt. eigenvalues --    1.45498   1.53729   1.76273   1.76424   1.85206
 Alpha virt. eigenvalues --    2.03099   2.24837   2.54466   2.66677   2.67671
 Alpha virt. eigenvalues --    2.84382   2.87659   3.21539   4.22883   4.47284
          Condensed to atoms (all electrons):
               1          2          3          4          5
     1  H    0.366834   0.337725  -0.045666  -0.053036   0.002469
     2  N    0.337725   7.056079   0.337725   0.023275  -0.038855
     3  H   -0.045666   0.337725   0.366834  -0.053036   0.002469
     4  O   -0.053036   0.023275  -0.053036   8.425619   0.228730
     5  H    0.002469  -0.038855   0.002469   0.228730   0.301034
 Mulliken charges:
               1
     1  H    0.391674
     2  N   -0.715950
     3  H    0.391674
     4  O   -0.571551
     5  H    0.504152
 Sum of Mulliken charges =   0.00000
 Mulliken charges with hydrogens summed into heavy atoms:
               1
     2  N    0.067399
     4  O   -0.067399
 APT charges:
               1
     1  H    0.154761
     2  N   -0.094873
     3  H    0.154761
     4  O   -0.520609
     5  H    0.305960
 Sum of APT charges =   0.00000
 APT charges with hydrogens summed into heavy atoms:
               1
     2  N    0.214649
     4  O   -0.214649
 Electronic spatial extent (au):  <R**2>=             72.1659
 Charge=              0.0000 electrons
 Dipole moment (field-independent basis, Debye):
    X=              0.0953    Y=              0.6973    Z=              0.0000  Tot=              0.7038
 Quadrupole moment (field-independent basis, Debye-Ang):
   XX=            -11.2942   YY=            -12.7585   ZZ=            -11.5562
   XY=              4.2586   XZ=              0.0000   YZ=              0.0000
 Traceless Quadrupole moment (field-independent basis, Debye-Ang):
   XX=              0.5754   YY=             -0.8889   ZZ=              0.3134
   XY=              4.2586   XZ=              0.0000   YZ=              0.0000
 Octapole moment (field-independent basis, Debye-Ang**2):
  XXX=             -1.0773  YYY=             -1.6117  ZZZ=              0.0000  XYY=              0.2624
  XXY=             -2.5336  XXZ=              0.0000  XZZ=              1.1688  YZZ=              1.6462
  YYZ=              0.0000  XYZ=              0.0000
 Hexadecapole moment (field-independent basis, Debye-Ang**3):
 XXXX=            -13.9775 YYYY=            -52.1054 ZZZZ=            -13.3584 XXXY=              0.8142
 XXXZ=              0.0000 YYYX=              3.1089 YYYZ=              0.0000 ZZZX=              0.0000
 ZZZY=              0.0000 XXYY=            -10.3065 XXZZ=             -4.4934 YYZZ=            -10.5394
 XXYZ=              0.0000 YYXZ=              0.0000 ZZXY=              0.6050
 N-N= 4.014118540435D+01 E-N=-3.895958225522D+02  KE= 1.306517031177D+02
 Symmetry A'   KE= 1.232121278294D+02
 Symmetry A"   KE= 7.439575288246D+00
  Exact polarizability:  12.260   1.745  16.388   0.000   0.000  12.174
 Approx polarizability:  10.138   1.230  12.042   0.000   0.000  10.311
 Calling FoFJK, ICntrl=    100127 FMM=F ISym2X=1 I1Cent= 0 IOpClX= 0 NMat=1 NMatS=1 NMatT=0.
 Full mass-weighted force constant matrix:
 Low frequencies ---  -17.4360  -13.0659   -0.0020   -0.0019   -0.0018   24.2359
 Low frequencies ---  472.1395 1122.1998 1267.7923
 Diagonal vibrational polarizability:
        1.4042555       2.5947616      28.5625807
 Diagonal vibrational hyperpolarizability:
       -1.3251775      12.3760745      -0.0000045
 Harmonic frequencies (cm**-1), IR intensities (KM/Mole), Raman scattering
 activities (A**4/AMU), depolarization ratios for plane and unpolarized
 incident light, reduced masses (AMU), force constants (mDyne/A),
 and normal coordinates:
                      1                      2                      3
                     A"                     A'                     A'
 Frequencies --    472.1327              1122.1998              1267.7922
 Red. masses --      1.0654                 6.1269                 1.2547
 Frc consts  --      0.1399                 4.5460                 1.1882
 IR Inten    --    236.4586                18.2913               172.1931
 Raman Activ --      0.6182                22.1394                 2.9935
 Depolar (P) --      0.7500                 0.2776                 0.2572
 Depolar (U) --      0.8571                 0.4346                 0.4092
  Atom  AN      X      Y      Z        X      Y      Z        X      Y      Z
     1   1     0.34  -0.03  -0.20     0.47  -0.21  -0.11    -0.39   0.48   0.14
     2   7     0.00   0.00   0.02    -0.08   0.48   0.00     0.07   0.02   0.00
     3   1    -0.34   0.03  -0.20     0.47  -0.21   0.11    -0.39   0.48  -0.14
     4   8     0.00   0.00   0.06     0.01  -0.37   0.00    -0.01  -0.11   0.00
     5   1     0.00   0.00  -0.83    -0.03  -0.25   0.00    -0.14   0.39   0.00
                      4                      5                      6
                     A"                     A'                     A'
 Frequencies --   1480.2882              1546.9336              1862.9133
 Red. masses --      1.1158                 1.1690                 1.0540
 Frc consts  --      1.4405                 1.6482                 2.1552
 IR Inten    --      0.5528                34.6385                27.5882
 Raman Activ --      5.6231                 1.7659                 5.1220
 Depolar (P) --      0.7500                 0.6095                 0.7480
 Depolar (U) --      0.8571                 0.7573                 0.8558
  Atom  AN      X      Y      Z        X      Y      Z        X      Y      Z
     1   1    -0.04   0.69  -0.11    -0.19   0.12   0.13    -0.34  -0.48   0.37
     2   7     0.00   0.00   0.07     0.08   0.03   0.00     0.02   0.05   0.00
     3   1     0.04  -0.69  -0.11    -0.19   0.12  -0.13    -0.34  -0.48  -0.37
     4   8     0.00   0.00  -0.05    -0.06   0.01   0.00     0.02   0.01   0.00
     5   1     0.00   0.00  -0.06     0.17  -0.91   0.00    -0.01   0.16   0.00
                      7                      8                      9
                     A'                     A"                     A'
 Frequencies --   3728.9334              3819.0026              4117.7972
 Red. masses --      1.0487                 1.0971                 1.0685
 Frc consts  --      8.5914                 9.4279                10.6742
 IR Inten    --      1.6043                 4.7828                74.6751
 Raman Activ --     91.5731                58.4493                50.9774
 Depolar (P) --      0.1279                 0.7500                 0.3063
 Depolar (U) --      0.2268                 0.8571                 0.4689
  Atom  AN      X      Y      Z        X      Y      Z        X      Y      Z
     1   1     0.35   0.18   0.59     0.38   0.17   0.57    -0.01  -0.01  -0.01
     2   7    -0.05  -0.03   0.00     0.00   0.00  -0.08     0.00   0.00   0.00
     3   1     0.35   0.18  -0.59    -0.38  -0.17   0.57    -0.01  -0.01   0.01
     4   8     0.00   0.00   0.00     0.00   0.00   0.00     0.06   0.02   0.00
     5   1    -0.02   0.00   0.00     0.00   0.00   0.00    -0.97  -0.25   0.00

 -------------------
 - Thermochemistry -
 -------------------
 Temperature   298.150 Kelvin.  Pressure   1.00000 Atm.
 Atom     1 has atomic number  1 and mass   1.00783
 Atom     2 has atomic number  7 and mass  14.00307
 Atom     3 has atomic number  1 and mass   1.00783
 Atom     4 has atomic number  8 and mass  15.99491
 Atom     5 has atomic number  1 and mass   1.00783
 Molecular mass:    33.02146 amu.
 Principal axes and moments of inertia in atomic units:
                           1         2         3
     Eigenvalues --     8.95753  67.45923  67.84690
           X            0.11641   0.00000   0.99320
           Y            0.99320   0.00000  -0.11641
           Z            0.00000   1.00000   0.00000
 This molecule is an asymmetric top.
 Rotational symmetry number  1.
 Rotational temperatures (Kelvin)      9.66939     1.28394     1.27661
 Rotational constants (GHZ):         201.47759    26.75306    26.60020
 Zero-point vibrational energy     116145.4 (Joules/Mol)
                                   27.75941 (Kcal/Mol)
 Warning -- explicit consideration of   1 degrees of freedom as
           vibrations may cause significant error
 Vibrational temperatures:    679.29  1614.59  1824.07  2129.80  2225.69
          (Kelvin)           2680.31  5365.10  5494.69  5924.58
 
 Zero-point correction=                           0.044237 (Hartree/Particle)
 Thermal correction to Energy=                    0.047362
 Thermal correction to Enthalpy=                  0.048306
 Thermal correction to Gibbs Free Energy=         0.021881
 Sum of electronic and zero-point Energies=           -130.941971
 Sum of electronic and thermal Energies=              -130.938847
 Sum of electronic and thermal Enthalpies=            -130.937903
 Sum of electronic and thermal Free Energies=         -130.964328
 
                     E (Thermal)             CV                S
                      KCal/Mol        Cal/Mol-Kelvin    Cal/Mol-Kelvin
 Total                   29.720              7.863             55.616
 Electronic               0.000              0.000              0.000
 Translational            0.889              2.981             36.415
 Rotational               0.889              2.981             18.356
 Vibrational             27.942              1.902              0.845
 Vibration     1          0.829              1.312              0.732
                       Q            Log10(Q)             Ln(Q)
 Total Bot       0.862165D-10        -10.064410        -23.174160
 Total V=0       0.192025D+11         10.283358         23.678307
 Vib (Bot)       0.504329D-20        -20.297286        -46.736227
 Vib (Bot)    1  0.356618D+00         -0.447797         -1.031091
 Vib (V=0)       0.112327D+01          0.050482          0.116240
 Vib (V=0)    1  0.111415D+01          0.046942          0.108089
 Electronic      0.100000D+01          0.000000          0.000000
 Translational   0.745847D+07          6.872650         15.824861
 Rotational      0.229206D+04          3.360226          7.737207
 ***** Axes restored to original set *****
 -------------------------------------------------------------------
 Center     Atomic                   Forces (Hartrees/Bohr)
 Number     Number              X              Y              Z
 -------------------------------------------------------------------
      1        1          -0.000016815   -0.000012437    0.000022725
      2        7          -0.000226974    0.000033017    0.000000000
      3        1          -0.000016815   -0.000012437   -0.000022725
      4        8           0.000267711   -0.000152373    0.000000000
      5        1          -0.000007108    0.000144231    0.000000000
 -------------------------------------------------------------------
 Cartesian Forces:  Max     0.000267711 RMS     0.000106538
 FormGI is forming the generalized inverse of G from B-inverse, IUseBI=4.

 GradGradGradGradGradGradGradGradGradGradGradGradGradGradGradGradGradGrad
 Berny optimization.
 Internal  Forces:  Max     0.000254966 RMS     0.000092951
 Search for a local minimum.
 Step number   1 out of a maximum of    2
 All quantities printed in internal units (Hartrees-Bohrs-Radians)
 Second derivative matrix not updated -- analytic derivatives used.
 The second derivative matrix:
                          R1        R2        R3        R4        A1
           R1           0.50767
           R2          -0.00045   0.50767
           R3           0.00611   0.00611   0.43362
           R4          -0.00130  -0.00130  -0.00239   0.60799
           A1           0.01571   0.01566  -0.02657  -0.00122   0.09115
           A2          -0.00260  -0.00109   0.02779   0.00078  -0.03446
           A3           0.00279   0.00043   0.05965   0.00148  -0.04271
           A4           0.00450   0.00450   0.07450   0.00238  -0.01151
           D1           0.00469   0.00534   0.04626   0.00102  -0.02012
           D2          -0.00727  -0.01006  -0.00285   0.00022  -0.03519
           D3           0.01026   0.00707   0.00285  -0.00022   0.03499
                          A2        A3        A4        D1        D2
           A2           0.08427
           A3          -0.06450   0.23282
           A4           0.00871   0.01743   0.25205
           D1           0.05258   0.01124   0.01266   0.05572
           D2           0.01844  -0.01530   0.00113  -0.00026   0.02365
           D3          -0.01188   0.00504  -0.00113   0.00309  -0.01418
                          D3
           D3           0.02193
 ITU=  0
     Eigenvalues ---    0.00825   0.06892   0.15084   0.22531   0.25234
     Eigenvalues ---    0.48417   0.50815   0.51246   0.60807
 Angle between quadratic step and forces=  22.57 degrees.
 Linear search not attempted -- first point.
 Iteration  1 RMS(Cart)=  0.00019750 RMS(Int)=  0.00000003
 Iteration  2 RMS(Cart)=  0.00000001 RMS(Int)=  0.00000000
 ClnCor:  largest displacement from symmetrization is 1.42D-08 for atom     3.
 Variable       Old X    -DE/DX   Delta X   Delta X   Delta X     New X
                                 (Linear)    (Quad)   (Total)
    R1        1.89306   0.00002   0.00000   0.00001   0.00001   1.89308
    R2        1.89306   0.00002   0.00000   0.00001   0.00001   1.89308
    R3        2.64789   0.00025   0.00000   0.00056   0.00056   2.64845
    R4        1.78888  -0.00013   0.00000  -0.00022  -0.00022   1.78866
    A1        1.86892   0.00001   0.00000   0.00024   0.00024   1.86916
    A2        1.83250   0.00001   0.00000  -0.00003  -0.00003   1.83247
    A3        1.83250   0.00003   0.00000  -0.00003  -0.00003   1.83247
    A4        1.82685   0.00010   0.00000   0.00023   0.00023   1.82708
    D1        1.94175   0.00003   0.00000   0.00005   0.00005   1.94181
    D2        2.15776  -0.00001   0.00000  -0.00012  -0.00012   2.15764
    D3       -2.15776   0.00001   0.00000   0.00012   0.00012  -2.15764
         Item               Value     Threshold  Converged?
 Maximum Force            0.000255     0.000450     YES
 RMS     Force            0.000093     0.000300     YES
 Maximum Displacement     0.000344     0.001800     YES
 RMS     Displacement     0.000198     0.001200     YES
 Predicted change in Energy=-1.012456D-07
 Optimization completed.
    -- Stationary point found.
                           ----------------------------
                           !   Optimized Parameters   !
                           ! (Angstroms and Degrees)  !
 --------------------------                            --------------------------
 ! Name  Definition              Value          Derivative Info.                !
 --------------------------------------------------------------------------------
 ! R1    R(1,2)                  1.0018         -DE/DX =    0.0                 !
 ! R2    R(2,3)                  1.0018         -DE/DX =    0.0                 !
 ! R3    R(2,4)                  1.4012         -DE/DX =    0.0003              !
 ! R4    R(4,5)                  0.9466         -DE/DX =   -0.0001              !
 ! A1    A(1,2,3)              107.0812         -DE/DX =    0.0                 !
 ! A2    A(1,2,4)              104.9943         -DE/DX =    0.0                 !
 ! A3    A(3,2,4)              104.9943         -DE/DX =    0.0                 !
 ! A4    A(2,4,5)              104.6706         -DE/DX =    0.0001              !
 ! D1    D(1,2,3,4)            111.2541         -DE/DX =    0.0                 !
 ! D2    D(1,2,4,5)            123.6304         -DE/DX =    0.0                 !
 ! D3    D(3,2,4,5)           -123.6304         -DE/DX =    0.0                 !
 --------------------------------------------------------------------------------
 GradGradGradGradGradGradGradGradGradGradGradGradGradGradGradGradGradGrad

 1|1|UNPC-LAPTOP-VTVSON0E|Freq|RHF|6-31+G(d)|H3N1O1|HP|30-Jun-2024|0||#
 N Geom=AllCheck Guess=TCheck SCRF=Check GenChk RHF/6-31+G(d) Freq||M00
 01||0,1|H,-1.0195483934,0.3530504752,0.8056988447|N,-0.6688847813,-0.1
 280117473,0.|H,-1.0195483934,0.3530504752,-0.8056988447|O,0.7098213364
 ,0.122057209,0.|H,1.1091541606,-0.7362252677,0.||Version=IA32W-G09RevD
 .01|State=1-A'|HF=-130.9862085|RMSD=8.212e-010|RMSF=1.065e-004|ZeroPoi
 nt=0.0442374|Thermal=0.0473616|Dipole=-0.2766344,-0.0120612,0.|DipoleD
 eriv=0.1221955,0.0198985,-0.0106288,0.0874851,0.2020216,-0.1437436,0.0
 231949,-0.0910244,0.1400667,0.1989824,-0.0417844,0.,-0.0506437,-0.3631
 433,0.,0.,0.,-0.1204584,0.1221955,0.0198985,0.0106288,0.0874851,0.2020
 216,0.1437436,-0.0231949,0.0910244,0.1400667,-0.7390644,0.0279381,0.,-
 0.1044304,-0.2752873,0.,0.,0.,-0.5474755,0.295691,-0.0259508,0.,-0.019
 8961,0.2343873,0.,0.,0.,0.3878005|Polar=16.8694973,-0.9091049,11.77892
 41,0.,0.,12.1738601|PolarDeriv=-1.6214717,1.1313988,-0.7566192,2.00097
 48,-0.8893758,-1.1835124,1.1264199,-1.3940443,0.9461257,-0.8969795,1.7
 122093,2.0337399,1.2399844,-1.0608067,1.6395116,-2.2776671,2.2595102,4
 .6766205,-11.32557,-3.612228,0.6959455,0.,0.,2.0601668,-4.1991581,0.20
 02227,-1.7316275,0.0000001,0.,-4.4751882,0.,0.,0.,1.7226202,-4.4156405
 ,0.,-1.6214717,1.1313988,-0.7566192,-2.0009748,0.8893758,-1.1835124,1.
 1264199,-1.3940443,0.9461257,0.8969795,-1.7122093,2.0337399,-1.2399844
 ,1.0608067,-1.6395116,-2.2776671,2.2595102,-4.6766205,12.1852344,3.204
 2173,-0.6184959,0.,0.,0.4100994,4.1843188,-0.3323945,4.4296648,0.,0.,0
 .6809953,0.,0.,0.,2.3160504,0.3649755,0.,2.3832789,-1.854787,1.4357887
 ,0.,0.,-0.1032412,-2.2380006,2.9202604,-4.5902886,0.,0.,-0.2732869,0.0
 000003,0.,-0.0000002,0.5166638,-0.4683554,0.|HyperPolar=-16.4081555,-6
 .7651312,-13.2441644,-13.6468394,0.,0.,0.,-9.1903959,4.6178466,0.|PG=C
 S [SG(H1N1O1),X(H2)]|NImag=0||0.13544755,-0.07614587,0.13681469,-0.111
 94562,0.17615559,0.36300960,-0.09707843,0.09582084,0.10458744,0.541555
 29,0.06018681,-0.15254506,-0.15476701,-0.13384205,0.37174055,0.0853720
 5,-0.21404262,-0.34335230,0.,0.,0.76021116,0.00977497,-0.00969200,0.01
 382750,-0.09707843,0.06018681,-0.08537205,0.13544755,-0.00969200,0.010
 43817,-0.02494701,0.09582084,-0.15254506,0.21404262,-0.07614587,0.1368
 1469,-0.01382750,0.02494701,-0.03051760,-0.10458744,0.15476701,-0.3433
 5230,0.11194562,-0.17615559,0.36300960,-0.04051898,-0.01027955,-0.0051
 2819,-0.31690282,-0.03222867,0.,-0.04051898,-0.01027955,0.00512819,0.5
 2623800,0.02842031,0.00453001,0.00243232,-0.03978626,-0.08438417,0.,0.
 02842031,0.00453001,-0.00243233,-0.17402749,0.60736828,0.03674240,0.01
 510094,0.01012575,0.,0.,-0.06907434,-0.03674240,-0.01510094,0.01012575
 ,0.,0.,0.05169245,-0.00762511,0.00029659,-0.00134112,-0.03049560,0.045
 69711,0.,-0.00762511,0.00029659,0.00134112,-0.12829721,0.15697314,0.,0
 .17404303,-0.00276925,0.00076220,0.00112610,-0.01801336,0.01773374,0.,
 -0.00276925,0.00076220,-0.00112610,0.22681527,-0.53204414,0.,-0.203263
 42,0.51278600,0.00365867,-0.00216092,0.00073455,0.,0.,-0.00443223,-0.0
 0365867,0.00216092,0.00073455,0.,0.,-0.00286961,0.,0.,0.00583274||0.00
 001681,0.00001244,-0.00002272,0.00022697,-0.00003302,0.,0.00001681,0.0
 0001244,0.00002272,-0.00026771,0.00015237,0.,0.00000711,-0.00014423,0.
 |||@


 AND HERE I AM, FOR ALL MY LORE,
 THE WRETCHED FOOL I WAS BEFORE.
 CALLED MASTER OF ARTS, AND DOCTOR TO BOOT,
 FOR TEN YEARS ALMOST I CONFUTE
 AND UP AND DOWN, WHEREVER IT GOES
 I DRAG MY STUDENTS BY THE NOSE --
 AND SEE THAT FOR ALL OUR SCIENCE AND ART
 WE CAN KNOW NOTHING.  IT BURNS MY HEART.

                                       -- FAUST
 Job cpu time:       0 days  0 hours  0 minutes  3.0 seconds.
 File lengths (MBytes):  RWF=      5 Int=      0 D2E=      0 Chk=      1 Scr=      1
 Normal termination of Gaussian 09 at Sun Jun 30 02:11:28 2024.
